!Murata Part Number: GCQ1555C1H470JB01
!These Parameters are Measured in Series Mode Connection
!Data Generated on Jun 10, 2025
!       o--ll--o
!Port1            Port2
!       o------o
!Operation Temp=25[degC], DC Bias Voltage=0[V]
!Freq. Start=100[MHz] Stop=9[GHz] 401[Steps]
# Hz S RI R 50
!Freq.(Hz) S11(Real) S11(Imag) S21(Real) S21(Imag) S12(Real) S12(Imag) S22(Real) S22(Imag)
100000000 0.1024101 -0.3021492 0.8975899 0.3021492 0.8975899 0.3021492 0.1024101 -0.3021492
121000000 0.0721609 -0.2574961 0.9278391 0.2574961 0.9278391 0.2574961 0.0721609 -0.2574961
142000000 0.0533331 -0.2232170 0.9466669 0.2232170 0.9466669 0.2232170 0.0533331 -0.2232170
163000000 0.0408964 -0.1963471 0.9591036 0.1963471 0.9591036 0.1963471 0.0408964 -0.1963471
184000000 0.0322829 -0.1748221 0.9677171 0.1748221 0.9677171 0.1748221 0.0322829 -0.1748221
205000000 0.0260848 -0.1572318 0.9739152 0.1572318 0.9739152 0.1572318 0.0260848 -0.1572318
226000000 0.0214830 -0.1426022 0.9785170 0.1426022 0.9785170 0.1426022 0.0214830 -0.1426022
247000000 0.0179762 -0.1302468 0.9820238 0.1302468 0.9820238 0.1302468 0.0179762 -0.1302468
268000000 0.0152447 -0.1196712 0.9847553 0.1196712 0.9847553 0.1196712 0.0152447 -0.1196712
289000000 0.0130770 -0.1105123 0.9869230 0.1105123 0.9869230 0.1105123 0.0130770 -0.1105123
310000000 0.0113288 -0.1024979 0.9886712 0.1024979 0.9886712 0.1024979 0.0113288 -0.1024979
331000000 0.0098992 -0.0954204 0.9901008 0.0954204 0.9901008 0.0954204 0.0098992 -0.0954204
352000000 0.0087156 -0.0891191 0.9912844 0.0891191 0.9912844 0.0891191 0.0087156 -0.0891191
373000000 0.0077251 -0.0834676 0.9922749 0.0834676 0.9922749 0.0834676 0.0077251 -0.0834676
394000000 0.0068883 -0.0783655 0.9931117 0.0783655 0.9931117 0.0783655 0.0068883 -0.0783655
415000000 0.0061753 -0.0737316 0.9938247 0.0737316 0.9938247 0.0737316 0.0061753 -0.0737316
436000000 0.0055630 -0.0695001 0.9944370 0.0695001 0.9944370 0.0695001 0.0055630 -0.0695001
457000000 0.0050337 -0.0656167 0.9949663 0.0656167 0.9949663 0.0656167 0.0050337 -0.0656167
478000000 0.0045733 -0.0620366 0.9954267 0.0620366 0.9954267 0.0620366 0.0045733 -0.0620366
499000000 0.0041705 -0.0587222 0.9958295 0.0587222 0.9958295 0.0587222 0.0041705 -0.0587222
520000000 0.0038164 -0.0556419 0.9961836 0.0556419 0.9961836 0.0556419 0.0038164 -0.0556419
541000000 0.0035036 -0.0527687 0.9964964 0.0527687 0.9964964 0.0527687 0.0035036 -0.0527687
562000000 0.0032262 -0.0500798 0.9967738 0.0500798 0.9967738 0.0500798 0.0032262 -0.0500798
583000000 0.0029792 -0.0475556 0.9970208 0.0475556 0.9970208 0.0475556 0.0029792 -0.0475556
604000000 0.0027586 -0.0451789 0.9972414 0.0451789 0.9972414 0.0451789 0.0027586 -0.0451789
625000000 0.0025609 -0.0429352 0.9974391 0.0429352 0.9974391 0.0429352 0.0025609 -0.0429352
646000000 0.0023832 -0.0408115 0.9976168 0.0408115 0.9976168 0.0408115 0.0023832 -0.0408115
667000000 0.0022232 -0.0387965 0.9977768 0.0387965 0.9977768 0.0387965 0.0022232 -0.0387965
688000000 0.0020787 -0.0368805 0.9979213 0.0368805 0.9979213 0.0368805 0.0020787 -0.0368805
709000000 0.0019480 -0.0350545 0.9980520 0.0350545 0.9980520 0.0350545 0.0019480 -0.0350545
730000000 0.0018295 -0.0333109 0.9981705 0.0333109 0.9981705 0.0333109 0.0018295 -0.0333109
751000000 0.0017220 -0.0316428 0.9982780 0.0316428 0.9982780 0.0316428 0.0017220 -0.0316428
772000000 0.0016243 -0.0300439 0.9983757 0.0300439 0.9983757 0.0300439 0.0016243 -0.0300439
793000000 0.0015355 -0.0285089 0.9984645 0.0285089 0.9984645 0.0285089 0.0015355 -0.0285089
814000000 0.0014546 -0.0270327 0.9985454 0.0270327 0.9985454 0.0270327 0.0014546 -0.0270327
835000000 0.0013810 -0.0256109 0.9986190 0.0256109 0.9986190 0.0256109 0.0013810 -0.0256109
856000000 0.0013139 -0.0242394 0.9986861 0.0242394 0.9986861 0.0242394 0.0013139 -0.0242394
877000000 0.0012527 -0.0229146 0.9987473 0.0229146 0.9987473 0.0229146 0.0012527 -0.0229146
898000000 0.0011970 -0.0216332 0.9988030 0.0216332 0.9988030 0.0216332 0.0011970 -0.0216332
919000000 0.0011464 -0.0203922 0.9988536 0.0203922 0.9988536 0.0203922 0.0011464 -0.0203922
940000000 0.0011003 -0.0191888 0.9988997 0.0191888 0.9988997 0.0191888 0.0011003 -0.0191888
961000000 0.0010584 -0.0180205 0.9989416 0.0180205 0.9989416 0.0180205 0.0010584 -0.0180205
982000000 0.0010204 -0.0168850 0.9989796 0.0168850 0.9989796 0.0168850 0.0010204 -0.0168850
1003000000 0.0009861 -0.0157802 0.9990139 0.0157802 0.9990139 0.0157802 0.0009861 -0.0157802
1024000000 0.0009551 -0.0147042 0.9990449 0.0147042 0.9990449 0.0147042 0.0009551 -0.0147042
1045000000 0.0009272 -0.0136552 0.9990728 0.0136552 0.9990728 0.0136552 0.0009272 -0.0136552
1066000000 0.0009022 -0.0126314 0.9990978 0.0126314 0.9990978 0.0126314 0.0009022 -0.0126314
1087000000 0.0008800 -0.0116315 0.9991200 0.0116315 0.9991200 0.0116315 0.0008800 -0.0116315
1108000000 0.0008603 -0.0106539 0.9991397 0.0106539 0.9991397 0.0106539 0.0008603 -0.0106539
1129000000 0.0008430 -0.0096974 0.9991570 0.0096974 0.9991570 0.0096974 0.0008430 -0.0096974
1150000000 0.0008280 -0.0087608 0.9991720 0.0087608 0.9991720 0.0087608 0.0008280 -0.0087608
1171000000 0.0008151 -0.0078428 0.9991849 0.0078428 0.9991849 0.0078428 0.0008151 -0.0078428
1192000000 0.0008042 -0.0069425 0.9991958 0.0069425 0.9991958 0.0069425 0.0008042 -0.0069425
1213000000 0.0007952 -0.0060589 0.9992048 0.0060589 0.9992048 0.0060589 0.0007952 -0.0060589
1234000000 0.0007881 -0.0051909 0.9992119 0.0051909 0.9992119 0.0051909 0.0007881 -0.0051909
1255000000 0.0007826 -0.0043379 0.9992174 0.0043379 0.9992174 0.0043379 0.0007826 -0.0043379
1276000000 0.0007789 -0.0034989 0.9992211 0.0034989 0.9992211 0.0034989 0.0007789 -0.0034989
1297000000 0.0007767 -0.0026732 0.9992233 0.0026732 0.9992233 0.0026732 0.0007767 -0.0026732
1318000000 0.0007760 -0.0018600 0.9992240 0.0018600 0.9992240 0.0018600 0.0007760 -0.0018600
1339000000 0.0007768 -0.0010588 0.9992232 0.0010588 0.9992232 0.0010588 0.0007768 -0.0010588
1360000000 0.0007790 -0.0002688 0.9992210 0.0002688 0.9992210 0.0002688 0.0007790 -0.0002688
1381000000 0.0007825 0.0005106 0.9992175 -0.0005106 0.9992175 -0.0005106 0.0007825 0.0005106
1402000000 0.0007874 0.0012799 0.9992126 -0.0012799 0.9992126 -0.0012799 0.0007874 0.0012799
1423000000 0.0007935 0.0020397 0.9992065 -0.0020397 0.9992065 -0.0020397 0.0007935 0.0020397
1444000000 0.0008009 0.0027906 0.9991991 -0.0027906 0.9991991 -0.0027906 0.0008009 0.0027906
1465000000 0.0008095 0.0035329 0.9991905 -0.0035329 0.9991905 -0.0035329 0.0008095 0.0035329
1486000000 0.0008193 0.0042671 0.9991807 -0.0042671 0.9991807 -0.0042671 0.0008193 0.0042671
1507000000 0.0008302 0.0049938 0.9991698 -0.0049938 0.9991698 -0.0049938 0.0008302 0.0049938
1528000000 0.0008423 0.0057134 0.9991577 -0.0057134 0.9991577 -0.0057134 0.0008423 0.0057134
1549000000 0.0008555 0.0064262 0.9991445 -0.0064262 0.9991445 -0.0064262 0.0008555 0.0064262
1570000000 0.0008699 0.0071327 0.9991301 -0.0071327 0.9991301 -0.0071327 0.0008699 0.0071327
1591000000 0.0008853 0.0078332 0.9991147 -0.0078332 0.9991147 -0.0078332 0.0008853 0.0078332
1612000000 0.0009018 0.0085282 0.9990982 -0.0085282 0.9990982 -0.0085282 0.0009018 0.0085282
1633000000 0.0009195 0.0092180 0.9990805 -0.0092180 0.9990805 -0.0092180 0.0009195 0.0092180
1654000000 0.0009382 0.0099029 0.9990618 -0.0099029 0.9990618 -0.0099029 0.0009382 0.0099029
1675000000 0.0009580 0.0105834 0.9990420 -0.0105834 0.9990420 -0.0105834 0.0009580 0.0105834
1696000000 0.0009789 0.0112596 0.9990211 -0.0112596 0.9990211 -0.0112596 0.0009789 0.0112596
1717000000 0.0010010 0.0119320 0.9989990 -0.0119320 0.9989990 -0.0119320 0.0010010 0.0119320
1738000000 0.0010241 0.0126009 0.9989759 -0.0126009 0.9989759 -0.0126009 0.0010241 0.0126009
1759000000 0.0010484 0.0132666 0.9989516 -0.0132666 0.9989516 -0.0132666 0.0010484 0.0132666
1780000000 0.0010738 0.0139294 0.9989262 -0.0139294 0.9989262 -0.0139294 0.0010738 0.0139294
1801000000 0.0011004 0.0145897 0.9988996 -0.0145897 0.9988996 -0.0145897 0.0011004 0.0145897
1822000000 0.0011281 0.0152477 0.9988719 -0.0152477 0.9988719 -0.0152477 0.0011281 0.0152477
1843000000 0.0011571 0.0159038 0.9988429 -0.0159038 0.9988429 -0.0159038 0.0011571 0.0159038
1864000000 0.0011874 0.0165583 0.9988126 -0.0165583 0.9988126 -0.0165583 0.0011874 0.0165583
1885000000 0.0012190 0.0172115 0.9987810 -0.0172115 0.9987810 -0.0172115 0.0012190 0.0172115
1906000000 0.0012519 0.0178638 0.9987481 -0.0178638 0.9987481 -0.0178638 0.0012519 0.0178638
1927000000 0.0012861 0.0185155 0.9987139 -0.0185155 0.9987139 -0.0185155 0.0012861 0.0185155
1948000000 0.0013219 0.0191669 0.9986781 -0.0191669 0.9986781 -0.0191669 0.0013219 0.0191669
1969000000 0.0013591 0.0198184 0.9986409 -0.0198184 0.9986409 -0.0198184 0.0013591 0.0198184
1990000000 0.0013979 0.0204703 0.9986021 -0.0204703 0.9986021 -0.0204703 0.0013979 0.0204703
2011000000 0.0014384 0.0211232 0.9985616 -0.0211232 0.9985616 -0.0211232 0.0014384 0.0211232
2032000000 0.0014807 0.0217772 0.9985193 -0.0217772 0.9985193 -0.0217772 0.0014807 0.0217772
2053000000 0.0015247 0.0224329 0.9984753 -0.0224329 0.9984753 -0.0224329 0.0015247 0.0224329
2074000000 0.0015708 0.0230908 0.9984292 -0.0230908 0.9984292 -0.0230908 0.0015708 0.0230908
2095000000 0.0016189 0.0237512 0.9983811 -0.0237512 0.9983811 -0.0237512 0.0016189 0.0237512
2116000000 0.0016693 0.0244147 0.9983307 -0.0244147 0.9983307 -0.0244147 0.0016693 0.0244147
2137000000 0.0017221 0.0250819 0.9982779 -0.0250819 0.9982779 -0.0250819 0.0017221 0.0250819
2158000000 0.0017775 0.0257532 0.9982225 -0.0257532 0.9982225 -0.0257532 0.0017775 0.0257532
2179000000 0.0018357 0.0264295 0.9981643 -0.0264295 0.9981643 -0.0264295 0.0018357 0.0264295
2200000000 0.0018970 0.0271112 0.9981030 -0.0271112 0.9981030 -0.0271112 0.0018970 0.0271112
2221000000 0.0019615 0.0277992 0.9980385 -0.0277992 0.9980385 -0.0277992 0.0019615 0.0277992
2242000000 0.0020297 0.0284943 0.9979703 -0.0284943 0.9979703 -0.0284943 0.0020297 0.0284943
2263000000 0.0021019 0.0291974 0.9978981 -0.0291974 0.9978981 -0.0291974 0.0021019 0.0291974
2284000000 0.0021786 0.0299095 0.9978214 -0.0299095 0.9978214 -0.0299095 0.0021786 0.0299095
2305000000 0.0022601 0.0306316 0.9977399 -0.0306316 0.9977399 -0.0306316 0.0022601 0.0306316
2326000000 0.0023472 0.0313651 0.9976528 -0.0313651 0.9976528 -0.0313651 0.0023472 0.0313651
2347000000 0.0024404 0.0321113 0.9975596 -0.0321113 0.9975596 -0.0321113 0.0024404 0.0321113
2368000000 0.0025406 0.0328718 0.9974594 -0.0328718 0.9974594 -0.0328718 0.0025406 0.0328718
2389000000 0.0026488 0.0336484 0.9973512 -0.0336484 0.9973512 -0.0336484 0.0026488 0.0336484
2410000000 0.0027659 0.0344431 0.9972341 -0.0344431 0.9972341 -0.0344431 0.0027659 0.0344431
2431000000 0.0028934 0.0352581 0.9971066 -0.0352581 0.9971066 -0.0352581 0.0028934 0.0352581
2452000000 0.0030330 0.0360963 0.9969670 -0.0360963 0.9969670 -0.0360963 0.0030330 0.0360963
2473000000 0.0031866 0.0369607 0.9968134 -0.0369607 0.9968134 -0.0369607 0.0031866 0.0369607
2494000000 0.0033567 0.0378550 0.9966433 -0.0378550 0.9966433 -0.0378550 0.0033567 0.0378550
2515000000 0.0035464 0.0387833 0.9964536 -0.0387833 0.9964536 -0.0387833 0.0035464 0.0387833
2536000000 0.0037594 0.0397506 0.9962406 -0.0397506 0.9962406 -0.0397506 0.0037594 0.0397506
2557000000 0.0040007 0.0407630 0.9959993 -0.0407630 0.9959993 -0.0407630 0.0040007 0.0407630
2578000000 0.0042764 0.0418276 0.9957236 -0.0418276 0.9957236 -0.0418276 0.0042764 0.0418276
2599000000 0.0045946 0.0429527 0.9954054 -0.0429527 0.9954054 -0.0429527 0.0045946 0.0429527
2620000000 0.0049660 0.0441487 0.9950340 -0.0441487 0.9950340 -0.0441487 0.0049660 0.0441487
2641000000 0.0054049 0.0454281 0.9945951 -0.0454281 0.9945951 -0.0454281 0.0054049 0.0454281
2662000000 0.0059304 0.0468059 0.9940696 -0.0468059 0.9940696 -0.0468059 0.0059304 0.0468059
2683000000 0.0065695 0.0483005 0.9934305 -0.0483005 0.9934305 -0.0483005 0.0065695 0.0483005
2704000000 0.0073599 0.0499339 0.9926401 -0.0499339 0.9926401 -0.0499339 0.0073599 0.0499339
2725000000 0.0083562 0.0517319 0.9916438 -0.0517319 0.9916438 -0.0517319 0.0083562 0.0517319
2746000000 0.0096389 0.0537228 0.9903611 -0.0537228 0.9903611 -0.0537228 0.0096389 0.0537228
2767000000 0.0113299 0.0559335 0.9886701 -0.0559335 0.9886701 -0.0559335 0.0113299 0.0559335
2788000000 0.0136170 0.0583770 0.9863830 -0.0583770 0.9863830 -0.0583770 0.0136170 0.0583770
2809000000 0.0167946 0.0610182 0.9832054 -0.0610182 0.9832054 -0.0610182 0.0167946 0.0610182
2830000000 0.0213195 0.0636871 0.9786805 -0.0636871 0.9786805 -0.0636871 0.0213195 0.0636871
2851000000 0.0278530 0.0658623 0.9721470 -0.0658623 0.9721470 -0.0658623 0.0278530 0.0658623
2872000000 0.0371051 0.0661968 0.9628949 -0.0661968 0.9628949 -0.0661968 0.0371051 0.0661968
2893000000 0.0488366 0.0618788 0.9511634 -0.0618788 0.9511634 -0.0618788 0.0488366 0.0618788
2914000000 0.0592339 0.0495815 0.9407661 -0.0495815 0.9407661 -0.0495815 0.0592339 0.0495815
2935000000 0.0606308 0.0313603 0.9393692 -0.0313603 0.9393692 -0.0313603 0.0606308 0.0313603
2956000000 0.0512738 0.0168304 0.9487262 -0.0168304 0.9487262 -0.0168304 0.0512738 0.0168304
2977000000 0.0385758 0.0110057 0.9614242 -0.0110057 0.9614242 -0.0110057 0.0385758 0.0110057
2998000000 0.0281298 0.0111289 0.9718702 -0.0111289 0.9718702 -0.0111289 0.0281298 0.0111289
3019000000 0.0208499 0.0136937 0.9791501 -0.0136937 0.9791501 -0.0136937 0.0208499 0.0136937
3040000000 0.0159858 0.0168864 0.9840142 -0.0168864 0.9840142 -0.0168864 0.0159858 0.0168864
3061000000 0.0127219 0.0200142 0.9872781 -0.0200142 0.9872781 -0.0200142 0.0127219 0.0200142
3082000000 0.0104884 0.0228674 0.9895116 -0.0228674 0.9895116 -0.0228674 0.0104884 0.0228674
3103000000 0.0089250 0.0254139 0.9910750 -0.0254139 0.9910750 -0.0254139 0.0089250 0.0254139
3124000000 0.0078074 0.0276805 0.9921926 -0.0276805 0.9921926 -0.0276805 0.0078074 0.0276805
3145000000 0.0069942 0.0297080 0.9930058 -0.0297080 0.9930058 -0.0297080 0.0069942 0.0297080
3166000000 0.0063944 0.0315364 0.9936056 -0.0315364 0.9936056 -0.0315364 0.0063944 0.0315364
3187000000 0.0059480 0.0332004 0.9940520 -0.0332004 0.9940520 -0.0332004 0.0059480 0.0332004
3208000000 0.0056143 0.0347288 0.9943857 -0.0347288 0.9943857 -0.0347288 0.0056143 0.0347288
3229000000 0.0053654 0.0361452 0.9946346 -0.0361452 0.9946346 -0.0361452 0.0053654 0.0361452
3250000000 0.0051814 0.0374687 0.9948186 -0.0374687 0.9948186 -0.0374687 0.0051814 0.0374687
3271000000 0.0050481 0.0387147 0.9949519 -0.0387147 0.9949519 -0.0387147 0.0050481 0.0387147
3292000000 0.0049551 0.0398958 0.9950449 -0.0398958 0.9950449 -0.0398958 0.0049551 0.0398958
3313000000 0.0048947 0.0410226 0.9951053 -0.0410226 0.9951053 -0.0410226 0.0048947 0.0410226
3334000000 0.0048611 0.0421036 0.9951389 -0.0421036 0.9951389 -0.0421036 0.0048611 0.0421036
3355000000 0.0048500 0.0431461 0.9951500 -0.0431461 0.9951500 -0.0431461 0.0048500 0.0431461
3376000000 0.0048580 0.0441562 0.9951420 -0.0441562 0.9951420 -0.0441562 0.0048580 0.0441562
3397000000 0.0048826 0.0451390 0.9951174 -0.0451390 0.9951174 -0.0451390 0.0048826 0.0451390
3418000000 0.0049217 0.0460991 0.9950783 -0.0460991 0.9950783 -0.0460991 0.0049217 0.0460991
3439000000 0.0049740 0.0470402 0.9950260 -0.0470402 0.9950260 -0.0470402 0.0049740 0.0470402
3460000000 0.0050382 0.0479659 0.9949618 -0.0479659 0.9949618 -0.0479659 0.0050382 0.0479659
3481000000 0.0051135 0.0488791 0.9948865 -0.0488791 0.9948865 -0.0488791 0.0051135 0.0488791
3502000000 0.0051993 0.0497826 0.9948007 -0.0497826 0.9948007 -0.0497826 0.0051993 0.0497826
3523000000 0.0052951 0.0506787 0.9947049 -0.0506787 0.9947049 -0.0506787 0.0052951 0.0506787
3544000000 0.0054009 0.0515698 0.9945991 -0.0515698 0.9945991 -0.0515698 0.0054009 0.0515698
3565000000 0.0055164 0.0524580 0.9944836 -0.0524580 0.9944836 -0.0524580 0.0055164 0.0524580
3586000000 0.0056418 0.0533451 0.9943582 -0.0533451 0.9943582 -0.0533451 0.0056418 0.0533451
3607000000 0.0057771 0.0542332 0.9942229 -0.0542332 0.9942229 -0.0542332 0.0057771 0.0542332
3628000000 0.0059228 0.0551239 0.9940772 -0.0551239 0.9940772 -0.0551239 0.0059228 0.0551239
3649000000 0.0060792 0.0560192 0.9939208 -0.0560192 0.9939208 -0.0560192 0.0060792 0.0560192
3670000000 0.0062468 0.0569207 0.9937532 -0.0569207 0.9937532 -0.0569207 0.0062468 0.0569207
3691000000 0.0064264 0.0578301 0.9935736 -0.0578301 0.9935736 -0.0578301 0.0064264 0.0578301
3712000000 0.0066188 0.0587493 0.9933812 -0.0587493 0.9933812 -0.0587493 0.0066188 0.0587493
3733000000 0.0068249 0.0596802 0.9931751 -0.0596802 0.9931751 -0.0596802 0.0068249 0.0596802
3754000000 0.0070459 0.0606244 0.9929541 -0.0606244 0.9929541 -0.0606244 0.0070459 0.0606244
3775000000 0.0072830 0.0615841 0.9927170 -0.0615841 0.9927170 -0.0615841 0.0072830 0.0615841
3796000000 0.0075379 0.0625613 0.9924621 -0.0625613 0.9924621 -0.0625613 0.0075379 0.0625613
3817000000 0.0078123 0.0635581 0.9921877 -0.0635581 0.9921877 -0.0635581 0.0078123 0.0635581
3838000000 0.0081082 0.0645769 0.9918918 -0.0645769 0.9918918 -0.0645769 0.0081082 0.0645769
3859000000 0.0084282 0.0656202 0.9915718 -0.0656202 0.9915718 -0.0656202 0.0084282 0.0656202
3880000000 0.0087749 0.0666906 0.9912251 -0.0666906 0.9912251 -0.0666906 0.0087749 0.0666906
3901000000 0.0091516 0.0677911 0.9908484 -0.0677911 0.9908484 -0.0677911 0.0091516 0.0677911
3922000000 0.0095622 0.0689247 0.9904378 -0.0689247 0.9904378 -0.0689247 0.0095622 0.0689247
3943000000 0.0100111 0.0700949 0.9899889 -0.0700949 0.9899889 -0.0700949 0.0100111 0.0700949
3964000000 0.0105037 0.0713054 0.9894963 -0.0713054 0.9894963 -0.0713054 0.0105037 0.0713054
3985000000 0.0110461 0.0725603 0.9889539 -0.0725603 0.9889539 -0.0725603 0.0110461 0.0725603
4006000000 0.0116459 0.0738638 0.9883541 -0.0738638 0.9883541 -0.0738638 0.0116459 0.0738638
4027000000 0.0123118 0.0752207 0.9876882 -0.0752207 0.9876882 -0.0752207 0.0123118 0.0752207
4048000000 0.0130548 0.0766361 0.9869452 -0.0766361 0.9869452 -0.0766361 0.0130548 0.0766361
4069000000 0.0138876 0.0781154 0.9861124 -0.0781154 0.9861124 -0.0781154 0.0138876 0.0781154
4090000000 0.0148260 0.0796639 0.9851740 -0.0796639 0.9851740 -0.0796639 0.0148260 0.0796639
4111000000 0.0158893 0.0812875 0.9841107 -0.0812875 0.9841107 -0.0812875 0.0158893 0.0812875
4132000000 0.0171011 0.0829912 0.9828989 -0.0829912 0.9828989 -0.0829912 0.0171011 0.0829912
4153000000 0.0184906 0.0847797 0.9815094 -0.0847797 0.9815094 -0.0847797 0.0184906 0.0847797
4174000000 0.0200944 0.0866556 0.9799056 -0.0866556 0.9799056 -0.0866556 0.0200944 0.0866556
4195000000 0.0219576 0.0886187 0.9780424 -0.0886187 0.9780424 -0.0886187 0.0219576 0.0886187
4216000000 0.0241373 0.0906631 0.9758627 -0.0906631 0.9758627 -0.0906631 0.0241373 0.0906631
4237000000 0.0267047 0.0927740 0.9732953 -0.0927740 0.9732953 -0.0927740 0.0267047 0.0927740
4258000000 0.0297485 0.0949216 0.9702515 -0.0949216 0.9702515 -0.0949216 0.0297485 0.0949216
4279000000 0.0333784 0.0970515 0.9666216 -0.0970515 0.9666216 -0.0970515 0.0333784 0.0970515
4300000000 0.0377267 0.0990704 0.9622733 -0.0990704 0.9622733 -0.0990704 0.0377267 0.0990704
4321000000 0.0429454 0.1008234 0.9570546 -0.1008234 0.9570546 -0.1008234 0.0429454 0.1008234
4342000000 0.0491934 0.1020623 0.9508066 -0.1020623 0.9508066 -0.1020623 0.0491934 0.1020623
4363000000 0.0565999 0.1024032 0.9434001 -0.1024032 0.9434001 -0.1024032 0.0565999 0.1024032
4384000000 0.0651866 0.1012861 0.9348134 -0.1012861 0.9348134 -0.1012861 0.0651866 0.1012861
4405000000 0.0747248 0.0979681 0.9252752 -0.0979681 0.9252752 -0.0979681 0.0747248 0.0979681
4426000000 0.0845304 0.0916283 0.9154696 -0.0916283 0.9154696 -0.0916283 0.0845304 0.0916283
4447000000 0.0932906 0.0816881 0.9067094 -0.0816881 0.9067094 -0.0816881 0.0932906 0.0816881
4468000000 0.0991713 0.0683531 0.9008287 -0.0683531 0.9008287 -0.0683531 0.0991713 0.0683531
4489000000 0.1004677 0.0530515 0.8995323 -0.0530515 0.8995323 -0.0530515 0.1004677 0.0530515
4510000000 0.0965799 0.0381700 0.9034201 -0.0381700 0.9034201 -0.0381700 0.0965799 0.0381700
4531000000 0.0884619 0.0259869 0.9115381 -0.0259869 0.9115381 -0.0259869 0.0884619 0.0259869
4552000000 0.0780365 0.0176676 0.9219635 -0.0176676 0.9219635 -0.0176676 0.0780365 0.0176676
4573000000 0.0671784 0.0131283 0.9328216 -0.0131283 0.9328216 -0.0131283 0.0671784 0.0131283
4594000000 0.0571160 0.0115707 0.9428840 -0.0115707 0.9428840 -0.0115707 0.0571160 0.0115707
4615000000 0.0484009 0.0120502 0.9515991 -0.0120502 0.9515991 -0.0120502 0.0484009 0.0120502
4636000000 0.0411345 0.0137768 0.9588655 -0.0137768 0.9588655 -0.0137768 0.0411345 0.0137768
4657000000 0.0351949 0.0161889 0.9648051 -0.0161889 0.9648051 -0.0161889 0.0351949 0.0161889
4678000000 0.0303819 0.0189230 0.9696181 -0.0189230 0.9696181 -0.0189230 0.0303819 0.0189230
4699000000 0.0264897 0.0217584 0.9735103 -0.0217584 0.9735103 -0.0217584 0.0264897 0.0217584
4720000000 0.0233363 0.0245679 0.9766637 -0.0245679 0.9766637 -0.0245679 0.0233363 0.0245679
4741000000 0.0207713 0.0272827 0.9792287 -0.0272827 0.9792287 -0.0272827 0.0207713 0.0272827
4762000000 0.0186742 0.0298691 0.9813258 -0.0298691 0.9813258 -0.0298691 0.0186742 0.0298691
4783000000 0.0169505 0.0323144 0.9830495 -0.0323144 0.9830495 -0.0323144 0.0169505 0.0323144
4804000000 0.0155260 0.0346172 0.9844740 -0.0346172 0.9844740 -0.0346172 0.0155260 0.0346172
4825000000 0.0143428 0.0367829 0.9856572 -0.0367829 0.9856572 -0.0367829 0.0143428 0.0367829
4846000000 0.0133554 0.0388198 0.9866446 -0.0388198 0.9866446 -0.0388198 0.0133554 0.0388198
4867000000 0.0125282 0.0407377 0.9874718 -0.0407377 0.9874718 -0.0407377 0.0125282 0.0407377
4888000000 0.0118328 0.0425469 0.9881672 -0.0425469 0.9881672 -0.0425469 0.0118328 0.0425469
4909000000 0.0112467 0.0442571 0.9887533 -0.0442571 0.9887533 -0.0442571 0.0112467 0.0442571
4930000000 0.0107519 0.0458776 0.9892481 -0.0458776 0.9892481 -0.0458776 0.0107519 0.0458776
4951000000 0.0103338 0.0474168 0.9896662 -0.0474168 0.9896662 -0.0474168 0.0103338 0.0474168
4972000000 0.0099807 0.0488828 0.9900193 -0.0488828 0.9900193 -0.0488828 0.0099807 0.0488828
4993000000 0.0096828 0.0502823 0.9903172 -0.0502823 0.9903172 -0.0502823 0.0096828 0.0502823
5014000000 0.0094323 0.0516219 0.9905677 -0.0516219 0.9905677 -0.0516219 0.0094323 0.0516219
5035000000 0.0092226 0.0529073 0.9907774 -0.0529073 0.9907774 -0.0529073 0.0092226 0.0529073
5056000000 0.0090483 0.0541435 0.9909517 -0.0541435 0.9909517 -0.0541435 0.0090483 0.0541435
5077000000 0.0089049 0.0553351 0.9910951 -0.0553351 0.9910951 -0.0553351 0.0089049 0.0553351
5098000000 0.0087886 0.0564863 0.9912114 -0.0564863 0.9912114 -0.0564863 0.0087886 0.0564863
5119000000 0.0086963 0.0576009 0.9913037 -0.0576009 0.9913037 -0.0576009 0.0086963 0.0576009
5140000000 0.0086253 0.0586821 0.9913747 -0.0586821 0.9913747 -0.0586821 0.0086253 0.0586821
5161000000 0.0085732 0.0597330 0.9914268 -0.0597330 0.9914268 -0.0597330 0.0085732 0.0597330
5182000000 0.0085382 0.0607563 0.9914618 -0.0607563 0.9914618 -0.0607563 0.0085382 0.0607563
5203000000 0.0085187 0.0617546 0.9914813 -0.0617546 0.9914813 -0.0617546 0.0085187 0.0617546
5224000000 0.0085133 0.0627300 0.9914867 -0.0627300 0.9914867 -0.0627300 0.0085133 0.0627300
5245000000 0.0085208 0.0636848 0.9914792 -0.0636848 0.9914792 -0.0636848 0.0085208 0.0636848
5266000000 0.0085402 0.0646206 0.9914598 -0.0646206 0.9914598 -0.0646206 0.0085402 0.0646206
5287000000 0.0085707 0.0655394 0.9914293 -0.0655394 0.9914293 -0.0655394 0.0085707 0.0655394
5308000000 0.0086117 0.0664427 0.9913883 -0.0664427 0.9913883 -0.0664427 0.0086117 0.0664427
5329000000 0.0086625 0.0673319 0.9913375 -0.0673319 0.9913375 -0.0673319 0.0086625 0.0673319
5350000000 0.0087226 0.0682085 0.9912774 -0.0682085 0.9912774 -0.0682085 0.0087226 0.0682085
5371000000 0.0087918 0.0690738 0.9912082 -0.0690738 0.9912082 -0.0690738 0.0087918 0.0690738
5392000000 0.0088696 0.0699289 0.9911304 -0.0699289 0.9911304 -0.0699289 0.0088696 0.0699289
5413000000 0.0089560 0.0707749 0.9910440 -0.0707749 0.9910440 -0.0707749 0.0089560 0.0707749
5434000000 0.0090508 0.0716130 0.9909492 -0.0716130 0.9909492 -0.0716130 0.0090508 0.0716130
5455000000 0.0091538 0.0724440 0.9908462 -0.0724440 0.9908462 -0.0724440 0.0091538 0.0724440
5476000000 0.0092653 0.0732691 0.9907347 -0.0732691 0.9907347 -0.0732691 0.0092653 0.0732691
5497000000 0.0093851 0.0740891 0.9906149 -0.0740891 0.9906149 -0.0740891 0.0093851 0.0740891
5518000000 0.0095136 0.0749048 0.9904864 -0.0749048 0.9904864 -0.0749048 0.0095136 0.0749048
5539000000 0.0096509 0.0757172 0.9903491 -0.0757172 0.9903491 -0.0757172 0.0096509 0.0757172
5560000000 0.0097973 0.0765270 0.9902027 -0.0765270 0.9902027 -0.0765270 0.0097973 0.0765270
5581000000 0.0099532 0.0773350 0.9900468 -0.0773350 0.9900468 -0.0773350 0.0099532 0.0773350
5602000000 0.0101191 0.0781419 0.9898809 -0.0781419 0.9898809 -0.0781419 0.0101191 0.0781419
5623000000 0.0102956 0.0789487 0.9897044 -0.0789487 0.9897044 -0.0789487 0.0102956 0.0789487
5644000000 0.0104832 0.0797559 0.9895168 -0.0797559 0.9895168 -0.0797559 0.0104832 0.0797559
5665000000 0.0106829 0.0805643 0.9893171 -0.0805643 0.9893171 -0.0805643 0.0106829 0.0805643
5686000000 0.0108954 0.0813746 0.9891046 -0.0813746 0.9891046 -0.0813746 0.0108954 0.0813746
5707000000 0.0111219 0.0821874 0.9888781 -0.0821874 0.9888781 -0.0821874 0.0111219 0.0821874
5728000000 0.0113635 0.0830035 0.9886365 -0.0830035 0.9886365 -0.0830035 0.0113635 0.0830035
5749000000 0.0116217 0.0838234 0.9883783 -0.0838234 0.9883783 -0.0838234 0.0116217 0.0838234
5770000000 0.0118980 0.0846477 0.9881020 -0.0846477 0.9881020 -0.0846477 0.0118980 0.0846477
5791000000 0.0121944 0.0854769 0.9878056 -0.0854769 0.9878056 -0.0854769 0.0121944 0.0854769
5812000000 0.0125130 0.0863115 0.9874870 -0.0863115 0.9874870 -0.0863115 0.0125130 0.0863115
5833000000 0.0128562 0.0871518 0.9871438 -0.0871518 0.9871438 -0.0871518 0.0128562 0.0871518
5854000000 0.0132270 0.0879979 0.9867730 -0.0879979 0.9867730 -0.0879979 0.0132270 0.0879979
5875000000 0.0136285 0.0888499 0.9863715 -0.0888499 0.9863715 -0.0888499 0.0136285 0.0888499
5896000000 0.0140648 0.0897074 0.9859352 -0.0897074 0.9859352 -0.0897074 0.0140648 0.0897074
5917000000 0.0145401 0.0905696 0.9854599 -0.0905696 0.9854599 -0.0905696 0.0145401 0.0905696
5938000000 0.0150595 0.0914355 0.9849405 -0.0914355 0.9849405 -0.0914355 0.0150595 0.0914355
5959000000 0.0156289 0.0923029 0.9843711 -0.0923029 0.9843711 -0.0923029 0.0156289 0.0923029
5980000000 0.0162550 0.0931691 0.9837450 -0.0931691 0.9837450 -0.0931691 0.0162550 0.0931691
6001000000 0.0169453 0.0940297 0.9830547 -0.0940297 0.9830547 -0.0940297 0.0169453 0.0940297
6022000000 0.0177086 0.0948789 0.9822914 -0.0948789 0.9822914 -0.0948789 0.0177086 0.0948789
6043000000 0.0185541 0.0957084 0.9814459 -0.0957084 0.9814459 -0.0957084 0.0185541 0.0957084
6064000000 0.0194920 0.0965069 0.9805080 -0.0965069 0.9805080 -0.0965069 0.0194920 0.0965069
6085000000 0.0205330 0.0972590 0.9794670 -0.0972590 0.9794670 -0.0972590 0.0205330 0.0972590
6106000000 0.0216868 0.0979443 0.9783132 -0.0979443 0.9783132 -0.0979443 0.0216868 0.0979443
6127000000 0.0229615 0.0985360 0.9770385 -0.0985360 0.9770385 -0.0985360 0.0229615 0.0985360
6148000000 0.0243613 0.0989997 0.9756387 -0.0989997 0.9756387 -0.0989997 0.0243613 0.0989997
6169000000 0.0258824 0.0992927 0.9741176 -0.0992927 0.9741176 -0.0992927 0.0258824 0.0992927
6190000000 0.0275091 0.0993642 0.9724909 -0.0993642 0.9724909 -0.0993642 0.0275091 0.0993642
6211000000 0.0292072 0.0991582 0.9707928 -0.0991582 0.9707928 -0.0991582 0.0292072 0.0991582
6232000000 0.0309179 0.0986193 0.9690821 -0.0986193 0.9690821 -0.0986193 0.0309179 0.0986193
6253000000 0.0325529 0.0977043 0.9674471 -0.0977043 0.9674471 -0.0977043 0.0325529 0.0977043
6274000000 0.0339954 0.0963981 0.9660046 -0.0963981 0.9660046 -0.0963981 0.0339954 0.0963981
6295000000 0.0351110 0.0947320 0.9648890 -0.0947320 0.9648890 -0.0947320 0.0351110 0.0947320
6316000000 0.0357711 0.0927957 0.9642289 -0.0927957 0.9642289 -0.0927957 0.0357711 0.0927957
6337000000 0.0358846 0.0907356 0.9641154 -0.0907356 0.9641154 -0.0907356 0.0358846 0.0907356
6358000000 0.0354260 0.0887316 0.9645740 -0.0887316 0.9645740 -0.0887316 0.0354260 0.0887316
6379000000 0.0344469 0.0869599 0.9655531 -0.0869599 0.9655531 -0.0869599 0.0344469 0.0869599
6400000000 0.0330621 0.0855556 0.9669379 -0.0855556 0.9669379 -0.0855556 0.0330621 0.0855556
6421000000 0.0314192 0.0845905 0.9685808 -0.0845905 0.9685808 -0.0845905 0.0314192 0.0845905
6442000000 0.0296642 0.0840742 0.9703358 -0.0840742 0.9703358 -0.0840742 0.0296642 0.0840742
6463000000 0.0279177 0.0839689 0.9720823 -0.0839689 0.9720823 -0.0839689 0.0279177 0.0839689
6484000000 0.0262649 0.0842106 0.9737351 -0.0842106 0.9737351 -0.0842106 0.0262649 0.0842106
6505000000 0.0247567 0.0847278 0.9752433 -0.0847278 0.9752433 -0.0847278 0.0247567 0.0847278
6526000000 0.0234170 0.0854527 0.9765830 -0.0854527 0.9765830 -0.0854527 0.0234170 0.0854527
6547000000 0.0222503 0.0863272 0.9777497 -0.0863272 0.9777497 -0.0863272 0.0222503 0.0863272
6568000000 0.0212499 0.0873051 0.9787501 -0.0873051 0.9787501 -0.0873051 0.0212499 0.0873051
6589000000 0.0204026 0.0883508 0.9795974 -0.0883508 0.9795974 -0.0883508 0.0204026 0.0883508
6610000000 0.0196929 0.0894381 0.9803071 -0.0894381 0.9803071 -0.0894381 0.0196929 0.0894381
6631000000 0.0191046 0.0905484 0.9808954 -0.0905484 0.9808954 -0.0905484 0.0191046 0.0905484
6652000000 0.0186226 0.0916684 0.9813774 -0.0916684 0.9813774 -0.0916684 0.0186226 0.0916684
6673000000 0.0182332 0.0927894 0.9817668 -0.0927894 0.9817668 -0.0927894 0.0182332 0.0927894
6694000000 0.0179243 0.0939054 0.9820757 -0.0939054 0.9820757 -0.0939054 0.0179243 0.0939054
6715000000 0.0176854 0.0950130 0.9823146 -0.0950130 0.9823146 -0.0950130 0.0176854 0.0950130
6736000000 0.0175076 0.0961100 0.9824924 -0.0961100 0.9824924 -0.0961100 0.0175076 0.0961100
6757000000 0.0173833 0.0971956 0.9826167 -0.0971956 0.9826167 -0.0971956 0.0173833 0.0971956
6778000000 0.0173061 0.0982696 0.9826939 -0.0982696 0.9826939 -0.0982696 0.0173061 0.0982696
6799000000 0.0172707 0.0993323 0.9827293 -0.0993323 0.9827293 -0.0993323 0.0172707 0.0993323
6820000000 0.0172727 0.1003845 0.9827273 -0.1003845 0.9827273 -0.1003845 0.0172727 0.1003845
6841000000 0.0173083 0.1014271 0.9826917 -0.1014271 0.9826917 -0.1014271 0.0173083 0.1014271
6862000000 0.0173744 0.1024611 0.9826256 -0.1024611 0.9826256 -0.1024611 0.0173744 0.1024611
6883000000 0.0174687 0.1034877 0.9825313 -0.1034877 0.9825313 -0.1034877 0.0174687 0.1034877
6904000000 0.0175889 0.1045081 0.9824111 -0.1045081 0.9824111 -0.1045081 0.0175889 0.1045081
6925000000 0.0177335 0.1055235 0.9822665 -0.1055235 0.9822665 -0.1055235 0.0177335 0.1055235
6946000000 0.0179012 0.1065351 0.9820988 -0.1065351 0.9820988 -0.1065351 0.0179012 0.1065351
6967000000 0.0180910 0.1075439 0.9819090 -0.1075439 0.9819090 -0.1075439 0.0180910 0.1075439
6988000000 0.0183021 0.1085513 0.9816979 -0.1085513 0.9816979 -0.1085513 0.0183021 0.1085513
7009000000 0.0185341 0.1095583 0.9814659 -0.1095583 0.9814659 -0.1095583 0.0185341 0.1095583
7030000000 0.0187867 0.1105659 0.9812133 -0.1105659 0.9812133 -0.1105659 0.0187867 0.1105659
7051000000 0.0190599 0.1115753 0.9809401 -0.1115753 0.9809401 -0.1115753 0.0190599 0.1115753
7072000000 0.0193538 0.1125874 0.9806462 -0.1125874 0.9806462 -0.1125874 0.0193538 0.1125874
7093000000 0.0196688 0.1136033 0.9803312 -0.1136033 0.9803312 -0.1136033 0.0196688 0.1136033
7114000000 0.0200052 0.1146239 0.9799948 -0.1146239 0.9799948 -0.1146239 0.0200052 0.1146239
7135000000 0.0203639 0.1156502 0.9796361 -0.1156502 0.9796361 -0.1156502 0.0203639 0.1156502
7156000000 0.0207457 0.1166830 0.9792543 -0.1166830 0.9792543 -0.1166830 0.0207457 0.1166830
7177000000 0.0211516 0.1177233 0.9788484 -0.1177233 0.9788484 -0.1177233 0.0211516 0.1177233
7198000000 0.0215828 0.1187717 0.9784172 -0.1187717 0.9784172 -0.1187717 0.0215828 0.1187717
7219000000 0.0220409 0.1198293 0.9779591 -0.1198293 0.9779591 -0.1198293 0.0220409 0.1198293
7240000000 0.0225275 0.1208967 0.9774725 -0.1208967 0.9774725 -0.1208967 0.0225275 0.1208967
7261000000 0.0230445 0.1219745 0.9769555 -0.1219745 0.9769555 -0.1219745 0.0230445 0.1219745
7282000000 0.0235940 0.1230635 0.9764060 -0.1230635 0.9764060 -0.1230635 0.0235940 0.1230635
7303000000 0.0241786 0.1241642 0.9758214 -0.1241642 0.9758214 -0.1241642 0.0241786 0.1241642
7324000000 0.0248010 0.1252771 0.9751990 -0.1252771 0.9751990 -0.1252771 0.0248010 0.1252771
7345000000 0.0254643 0.1264024 0.9745357 -0.1264024 0.9745357 -0.1264024 0.0254643 0.1264024
7366000000 0.0261721 0.1275403 0.9738279 -0.1275403 0.9738279 -0.1275403 0.0261721 0.1275403
7387000000 0.0269282 0.1286909 0.9730718 -0.1286909 0.9730718 -0.1286909 0.0269282 0.1286909
7408000000 0.0277371 0.1298538 0.9722629 -0.1298538 0.9722629 -0.1298538 0.0277371 0.1298538
7429000000 0.0286039 0.1310284 0.9713961 -0.1310284 0.9713961 -0.1310284 0.0286039 0.1310284
7450000000 0.0295339 0.1322138 0.9704661 -0.1322138 0.9704661 -0.1322138 0.0295339 0.1322138
7471000000 0.0305335 0.1334083 0.9694665 -0.1334083 0.9694665 -0.1334083 0.0305335 0.1334083
7492000000 0.0316096 0.1346098 0.9683904 -0.1346098 0.9683904 -0.1346098 0.0316096 0.1346098
7513000000 0.0327700 0.1358154 0.9672300 -0.1358154 0.9672300 -0.1358154 0.0327700 0.1358154
7534000000 0.0340233 0.1370210 0.9659767 -0.1370210 0.9659767 -0.1370210 0.0340233 0.1370210
7555000000 0.0353789 0.1382213 0.9646211 -0.1382213 0.9646211 -0.1382213 0.0353789 0.1382213
7576000000 0.0368475 0.1394094 0.9631525 -0.1394094 0.9631525 -0.1394094 0.0368475 0.1394094
7597000000 0.0384404 0.1405761 0.9615596 -0.1405761 0.9615596 -0.1405761 0.0384404 0.1405761
7618000000 0.0401699 0.1417100 0.9598301 -0.1417100 0.9598301 -0.1417100 0.0401699 0.1417100
7639000000 0.0420490 0.1427963 0.9579510 -0.1427963 0.9579510 -0.1427963 0.0420490 0.1427963
7660000000 0.0440912 0.1438161 0.9559088 -0.1438161 0.9559088 -0.1438161 0.0440912 0.1438161
7681000000 0.0463095 0.1447461 0.9536905 -0.1447461 0.9536905 -0.1447461 0.0463095 0.1447461
7702000000 0.0487162 0.1455567 0.9512838 -0.1455567 0.9512838 -0.1455567 0.0487162 0.1455567
7723000000 0.0513214 0.1462118 0.9486786 -0.1462118 0.9486786 -0.1462118 0.0513214 0.1462118
7744000000 0.0541307 0.1466672 0.9458693 -0.1466672 0.9458693 -0.1466672 0.0541307 0.1466672
7765000000 0.0571430 0.1468700 0.9428570 -0.1468700 0.9428570 -0.1468700 0.0571430 0.1468700
7786000000 0.0603470 0.1467584 0.9396530 -0.1467584 0.9396530 -0.1467584 0.0603470 0.1467584
7807000000 0.0637163 0.1462624 0.9362837 -0.1462624 0.9362837 -0.1462624 0.0637163 0.1462624
7828000000 0.0672043 0.1453065 0.9327957 -0.1453065 0.9327957 -0.1453065 0.0672043 0.1453065
7849000000 0.0707385 0.1438145 0.9292615 -0.1438145 0.9292615 -0.1438145 0.0707385 0.1438145
7870000000 0.0742152 0.1417185 0.9257848 -0.1417185 0.9257848 -0.1417185 0.0742152 0.1417185
7891000000 0.0774975 0.1389706 0.9225025 -0.1389706 0.9225025 -0.1389706 0.0774975 0.1389706
7912000000 0.0804183 0.1355591 0.9195817 -0.1355591 0.9195817 -0.1355591 0.0804183 0.1355591
7933000000 0.0827905 0.1315243 0.9172095 -0.1315243 0.9172095 -0.1315243 0.0827905 0.1315243
7954000000 0.0844273 0.1269714 0.9155727 -0.1269714 0.9155727 -0.1269714 0.0844273 0.1269714
7975000000 0.0851701 0.1220741 0.9148299 -0.1220741 0.9148299 -0.1220741 0.0851701 0.1220741
7996000000 0.0849180 0.1170631 0.9150820 -0.1170631 0.9150820 -0.1170631 0.0849180 0.1170631
8017000000 0.0836514 0.1122000 0.9163486 -0.1122000 0.9163486 -0.1122000 0.0836514 0.1122000
8038000000 0.0814406 0.1077411 0.9185594 -0.1077411 0.9185594 -0.1077411 0.0814406 0.1077411
8059000000 0.0784350 0.1039006 0.9215650 -0.1039006 0.9215650 -0.1039006 0.0784350 0.1039006
8080000000 0.0748369 0.1008246 0.9251631 -0.1008246 0.9251631 -0.1008246 0.0748369 0.1008246
8101000000 0.0708681 0.0985816 0.9291319 -0.0985816 0.9291319 -0.0985816 0.0708681 0.0985816
8122000000 0.0667394 0.0971687 0.9332606 -0.0971687 0.9332606 -0.0971687 0.0667394 0.0971687
8143000000 0.0626290 0.0965283 0.9373710 -0.0965283 0.9373710 -0.0965283 0.0626290 0.0965283
8164000000 0.0586729 0.0965695 0.9413271 -0.0965695 0.9413271 -0.0965695 0.0586729 0.0965695
8185000000 0.0549641 0.0971862 0.9450359 -0.0971862 0.9450359 -0.0971862 0.0549641 0.0971862
8206000000 0.0515579 0.0982715 0.9484421 -0.0982715 0.9484421 -0.0982715 0.0515579 0.0982715
8227000000 0.0484798 0.0997271 0.9515202 -0.0997271 0.9515202 -0.0997271 0.0484798 0.0997271
8248000000 0.0457338 0.1014675 0.9542662 -0.1014675 0.9542662 -0.1014675 0.0457338 0.1014675
8269000000 0.0433097 0.1034217 0.9566903 -0.1034217 0.9566903 -0.1034217 0.0433097 0.1034217
8290000000 0.0411887 0.1055328 0.9588113 -0.1055328 0.9588113 -0.1055328 0.0411887 0.1055328
8311000000 0.0393474 0.1077560 0.9606526 -0.1077560 0.9606526 -0.1077560 0.0393474 0.1077560
8332000000 0.0377609 0.1100577 0.9622391 -0.1100577 0.9622391 -0.1100577 0.0377609 0.1100577
8353000000 0.0364044 0.1124126 0.9635956 -0.1124126 0.9635956 -0.1124126 0.0364044 0.1124126
8374000000 0.0352546 0.1148024 0.9647454 -0.1148024 0.9647454 -0.1148024 0.0352546 0.1148024
8395000000 0.0342899 0.1172147 0.9657101 -0.1172147 0.9657101 -0.1172147 0.0342899 0.1172147
8416000000 0.0334910 0.1196410 0.9665090 -0.1196410 0.9665090 -0.1196410 0.0334910 0.1196410
8437000000 0.0328408 0.1220763 0.9671592 -0.1220763 0.9671592 -0.1220763 0.0328408 0.1220763
8458000000 0.0323242 0.1245181 0.9676758 -0.1245181 0.9676758 -0.1245181 0.0323242 0.1245181
8479000000 0.0319282 0.1269658 0.9680718 -0.1269658 0.9680718 -0.1269658 0.0319282 0.1269658
8500000000 0.0316418 0.1294206 0.9683582 -0.1294206 0.9683582 -0.1294206 0.0316418 0.1294206
