# GHZ S RI R 50.000000000000
0.001000000000 0.992614425309 -0.030746716652 0.000985900383 0.029031020487 -0.000662864911 0.028601360362 1.002700425308 -0.020596170646
0.002333111000 0.991198938144 -0.063948314641 0.004048750520 0.067570891153 0.003510628887 0.067615808585 0.993851402909 -0.064275442744
0.003666222000 0.983189712733 -0.101894236333 0.011310890664 0.104960036863 0.010554489883 0.105463259439 0.986277189583 -0.102934806455
0.004999333000 0.972714253734 -0.139481958794 0.022027787709 0.141676601644 0.020725154251 0.142171976130 0.975658344975 -0.141243178810
0.006332444000 0.960139277176 -0.175521294580 0.035203785256 0.176998915546 0.033593707456 0.177777172186 0.963171776174 -0.177598090774
0.007665555000 0.944945018488 -0.209964644145 0.051051981402 0.210979357593 0.049106844856 0.211964287425 0.947978034522 -0.212472093427
0.008998666000 0.927880069488 -0.243220774088 0.069093718929 0.243261460163 0.066964455521 0.243999578935 0.930305118602 -0.246049601991
0.010331777000 0.908773644145 -0.274156933863 0.089200893289 0.273401311148 0.086509658498 0.274352156657 0.911288454657 -0.277214392146
0.011664888000 0.888233503311 -0.303274769404 0.110538504831 0.301449252533 0.107712638744 0.302340109389 0.890642436193 -0.306147083206
0.012998000000 0.866239952913 -0.330581832088 0.133311268572 0.327477875593 0.130015829781 0.328374126443 0.868411823455 -0.333338186986
0.014331111000 0.843450776776 -0.354849457203 0.157169518004 0.351373987996 0.153629910010 0.352125567904 0.845434710540 -0.358218652099
0.015664222000 0.819861112947 -0.377509561272 0.182542134263 0.372466058695 0.178201522446 0.373819758421 0.822029418717 -0.380381226303
0.016997333000 0.795285708710 -0.397963231211 0.208012062708 0.391194181017 0.203422881142 0.393013071427 0.797514561486 -0.400774574228
0.018330444000 0.769879762559 -0.416406394545 0.233562619382 0.407990198452 0.228562017214 0.410369238767 0.772156268021 -0.418676835847
0.019663555000 0.744487030737 -0.432324730229 0.258761180335 0.422816693166 0.253708561364 0.425780949935 0.747253692111 -0.435044038122
0.020996666000 0.719165568925 -0.446520785942 0.283726735121 0.436162105659 0.279256167992 0.438997949438 0.721432232033 -0.449729824932
0.022329777000 0.693830056258 -0.458818976784 0.308251382620 0.447232389467 0.304185393618 0.450044805015 0.695478243545 -0.461684956114
0.023662888000 0.668605566274 -0.469748830057 0.332619505159 0.456897009060 0.328591854745 0.459786188922 0.670311953067 -0.472990176694
0.024996000000 0.643862687640 -0.478719828180 0.356572952348 0.465123296138 0.352352008290 0.467867560801 0.645577790570 -0.481615456563
0.026329111000 0.619226188333 -0.488295011412 0.378805202868 0.475407144705 0.374407003929 0.475301522983 0.615883368075 -0.494364190402
0.027662222000 0.595738324941 -0.493854624957 0.402249838092 0.479043396734 0.398111979274 0.480238010704 0.593897530569 -0.499588103064
0.028995333000 0.573470955564 -0.498062604316 0.425335401049 0.481678552126 0.421068423206 0.483927151732 0.572421064285 -0.502601301342
0.030328444000 0.551345163976 -0.500670399356 0.446910154766 0.483502128110 0.442237793046 0.486888546956 0.551286857097 -0.504605654843
0.031661555000 0.529116656286 -0.503770150602 0.467186224351 0.485858984940 0.463142891932 0.488637323646 0.528622530604 -0.507857278246
0.032994666000 0.507922636296 -0.505163016901 0.486089592155 0.486905829481 0.482076577796 0.489750619616 0.506424007558 -0.509563671150
0.034327777000 0.487148346357 -0.506769582594 0.504627864922 0.487494570784 0.499894988220 0.488936817289 0.484453736095 -0.510592029445
0.035660888000 0.467915580298 -0.505818550930 0.521497880440 0.487564215856 0.518206834737 0.489603737922 0.463793258132 -0.511242121431
0.036994000000 0.449311979025 -0.505389065215 0.539151623466 0.487252886524 0.535894412270 0.488655111409 0.444532186873 -0.510633095788
0.038327111000 0.431479230724 -0.504011211385 0.556030297410 0.486333475750 0.553028831535 0.487401660274 0.426540735925 -0.509181985076
0.039660222000 0.414636715566 -0.502066239231 0.572418235013 0.484585867173 0.569540850288 0.485351966396 0.409387175426 -0.507155781599
0.040993333000 0.398151371397 -0.499725450604 0.588496464454 0.482095188824 0.585189547241 0.483046876527 0.392742633306 -0.504789144667
0.042326444000 0.382806137422 -0.496621577115 0.603491400779 0.479707643113 0.600726219106 0.480432290791 0.377266400630 -0.501659853221
0.043659555000 0.367861443034 -0.493272322492 0.617962328604 0.476436655513 0.615153872819 0.477224501594 0.362491575532 -0.498265155353
0.044992666000 0.353429841807 -0.489340912981 0.631223695635 0.472834323640 0.628858330857 0.473974323790 0.348696639360 -0.494382703166
0.046325777000 0.340016573802 -0.485731550881 0.645240539884 0.469274167268 0.642032922637 0.470327038958 0.335232038231 -0.490342993982
0.047658888000 0.327120135458 -0.481465028472 0.657535967719 0.465475756205 0.654939508964 0.466454660447 0.322379064505 -0.486159023991
0.048992000000 0.314835407109 -0.477341491160 0.669526505902 0.461270546443 0.667035943723 0.462374617990 0.310061307338 -0.482024109357
0.050325111000 0.302934546608 -0.472977273647 0.681585152579 0.456783083998 0.678686122171 0.458283786968 0.298204742020 -0.477443754224
0.051658222000 0.291515754461 -0.468331093822 0.692401681446 0.452894976567 0.689780870971 0.454114213477 0.286946561655 -0.472983689276
0.052991333000 0.281003253484 -0.463918173281 0.703154242066 0.448401309446 0.700565215818 0.449782320817 0.276518377247 -0.468344384809
0.054324444000 0.270812200076 -0.459217565916 0.713026853138 0.443885301014 0.710709084657 0.445257330996 0.266127655593 -0.463687610785
0.055657555000 0.261034640133 -0.454467445467 0.722751847422 0.439779188076 0.720469880352 0.440748725023 0.256727781218 -0.458970190356
0.056990666000 0.251757215356 -0.449604624302 0.731598963702 0.434867314971 0.730052104319 0.436019293603 0.247482549858 -0.454065094151
0.058323777000 0.242845812385 -0.444734386196 0.740546754245 0.430086664916 0.738780664908 0.431155968169 0.238867639795 -0.448935275692
0.059656888000 0.234500956254 -0.439750380640 0.748992573787 0.425368237321 0.747146135879 0.426476818777 0.230593627507 -0.443739416512
0.060990000000 0.226305795186 -0.434310487027 0.757007384724 0.420047359206 0.755380179000 0.421091584748 0.222621645227 -0.438028071570
0.062323111000 0.216928009103 -0.429855947615 0.764922715733 0.414968702876 0.762811073634 0.416212776929 0.212559683635 -0.433706143725
0.063656222000 0.210267360351 -0.425638987926 0.772069344605 0.410801114842 0.770203563985 0.411569516125 0.206186758765 -0.429504077882
0.064989333000 0.203336960380 -0.420691417470 0.778882473085 0.406310882784 0.777195592748 0.407267893124 0.199470931600 -0.424624013727
0.066322444000 0.196601763250 -0.415791522268 0.785629017802 0.401692772032 0.784168631627 0.401980103344 0.192927897998 -0.419596100930
0.067655555000 0.190128979117 -0.411095831738 0.792392969167 0.396671908779 0.790489205574 0.397422391696 0.186415564014 -0.414749114238
0.068988666000 0.183957610722 -0.406340736956 0.798251567379 0.392177347306 0.796857910145 0.392582114155 0.180340045294 -0.409937794689
0.070321777000 0.178091594990 -0.401814497316 0.804459478324 0.387453171173 0.802921918617 0.387768456522 0.174347367029 -0.405334777568
0.071654888000 0.172332045933 -0.397168100591 0.810174419453 0.382515242427 0.808748600297 0.382621591947 0.168733353277 -0.400495158098
0.072988000000 0.166845622116 -0.392684121728 0.815819437943 0.378060886553 0.814317579918 0.378021038642 0.163158971941 -0.396013884253
0.074321111000 0.161655884941 -0.388251029675 0.821023030950 0.373374574320 0.819546812921 0.373356946927 0.157985678297 -0.391432656814
0.075654222000 0.156598542524 -0.383892031630 0.826010009711 0.368948019906 0.824407118934 0.369153063089 0.153016809413 -0.386925462005
0.076987333000 0.151882617994 -0.379585906548 0.831108950432 0.364723650524 0.829478565600 0.364226318847 0.148225209525 -0.382790707851
0.078320444000 0.147242854139 -0.375446927017 0.835425522152 0.360179590883 0.834185924495 0.360128413137 0.143655661440 -0.378373224946
0.079653555000 0.143003516338 -0.371266067308 0.840153266586 0.355683218871 0.838754398764 0.355523547668 0.139179913122 -0.374284261924
0.080986666000 0.138771926135 -0.367247694483 0.844305175239 0.351081714452 0.843160444028 0.351423371920 0.135098817580 -0.370209005812
0.082319777000 0.134755476313 -0.363337462771 0.848753544094 0.346939605180 0.847381093119 0.347244092917 0.131023098721 -0.366258561620
0.083652888000 0.130865702973 -0.359459043683 0.852570925136 0.342514344777 0.851140158018 0.342834170596 0.127220061618 -0.362266612485
0.084986000000 0.127071944349 -0.355554469478 0.856542104139 0.338499996755 0.855060906832 0.338605711992 0.123492750263 -0.358377421826
0.086319111000 0.123515687342 -0.351802265544 0.860020137352 0.334517049903 0.858939231701 0.334557673188 0.120147702085 -0.354600591706
0.087652222000 0.120328638886 -0.348156649080 0.863856206231 0.330497900651 0.862371475899 0.330818124942 0.116656289901 -0.350890653974
0.088985333000 0.117051766805 -0.344588053508 0.867276021689 0.326332568035 0.865886728414 0.326234787430 0.113373723706 -0.347232521748
0.090318444000 0.113923672997 -0.340962485749 0.870596561457 0.322401981927 0.869230692871 0.322669962913 0.110284657855 -0.343628619463
0.091651555000 0.110915382554 -0.337473747154 0.873537424665 0.318924972059 0.872237081805 0.318866603073 0.107424114931 -0.340100683702
0.092984666000 0.107946536243 -0.334166025040 0.876877332558 0.314942527407 0.875561011621 0.314954045193 0.104511554046 -0.336764958575
0.094317777000 0.105250276687 -0.330788330242 0.879728115500 0.311322825447 0.878416881366 0.311534706646 0.101766148894 -0.333415369410
0.095650888000 0.102482051130 -0.327513536699 0.882497070886 0.307708906740 0.881322567422 0.307947758823 0.098993557988 -0.330145642187
0.096984000000 0.099936845409 -0.324418339821 0.885574359159 0.304169417486 0.884203299618 0.304258908328 0.096508017509 -0.326816113523
0.098317111000 0.097405329762 -0.321269049490 0.888133267096 0.300948830943 0.886911786925 0.300603588013 0.094138088654 -0.323654565963
0.099650222000 0.094951785903 -0.318188711584 0.890442354772 0.297364599834 0.889834996579 0.297389942363 0.091745966327 -0.320506745453
0.100983333000 0.092861710271 -0.315058945324 0.892962464597 0.294066827507 0.892064775757 0.293625379395 0.089370738153 -0.317415384989
0.102316444000 0.090506293129 -0.312166516513 0.895673527308 0.290407497630 0.894622154197 0.290292209943 0.087122268384 -0.314375270122
0.103649555000 0.088410443029 -0.309185966696 0.897929405821 0.286647152950 0.896948626419 0.287098332194 0.085005564932 -0.311453731723
0.104982666000 0.086204186638 -0.306401411525 0.900158050874 0.283885308784 0.899088667857 0.283761496777 0.082764901774 -0.308649845939
0.106315777000 0.084253093384 -0.303577539169 0.902379288528 0.280740677754 0.901018371398 0.280522168584 0.080955614131 -0.305769266373
0.107648888000 0.082242461148 -0.300765513624 0.904402880034 0.277426023274 0.903356395000 0.277191531594 0.078929866289 -0.302981402071
0.108982000000 0.080459269012 -0.298051659671 0.906513103393 0.274403007539 0.905100195650 0.274171713681 0.077198399225 -0.300217102833
0.110315111000 0.078454186359 -0.295490244004 0.908427557050 0.271175808197 0.907517357931 0.270752309345 0.075421452655 -0.297598669901
0.111648222000 0.076873330410 -0.292905803877 0.910523965084 0.267868788150 0.909250939878 0.268152695916 0.073792606938 -0.294998891777
0.112981333000 0.075135382115 -0.290391251396 0.912198983636 0.264878149039 0.911048355312 0.265005904175 0.072140531670 -0.292388614699
0.114314444000 0.073557491896 -0.287867515053 0.913770244044 0.262273830932 0.912677803757 0.262032223076 0.070675588635 -0.289898306591
0.115647555000 0.071983152334 -0.285349587518 0.915464771586 0.259724590317 0.914596758523 0.259007321643 0.068924715652 -0.287509273072
0.116980666000 0.070515861987 -0.283083071569 0.916980190780 0.256525181940 0.916221932186 0.256444206554 0.067579127138 -0.284977689239
0.118313777000 0.069041232470 -0.280690006857 0.918577679255 0.253502451387 0.917654912258 0.253912794144 0.066084981098 -0.282596797191
0.119646888000 0.067627878666 -0.278334780188 0.920084483150 0.251154741956 0.919278620593 0.250715844016 0.064723873847 -0.280187322673
0.120980000000 0.066121283690 -0.276136891074 0.921802292740 0.248527016428 0.920699098175 0.248000596707 0.063249243162 -0.278020523000
0.122313111000 0.064861965590 -0.273918350496 0.923455589859 0.245605173833 0.921960757055 0.245723386582 0.062207870343 -0.275662477278
0.123646222000 0.063674818727 -0.271571185684 0.924525219374 0.243059540858 0.923423229961 0.242562237252 0.060880161468 -0.273510850317
0.124979333000 0.062346858320 -0.269483439779 0.925941198663 0.240445196341 0.924595038711 0.240285928793 0.059598661600 -0.271341749586
0.126312444000 0.061186372445 -0.267435552983 0.927431871470 0.237844532199 0.925505831174 0.237958454360 0.058618351417 -0.269341372995
0.127645555000 0.060061023145 -0.265263118187 0.928565731715 0.235187320406 0.927485732521 0.235331015595 0.057549349627 -0.267267131788
0.128978666000 0.058949424462 -0.263392455851 0.930008586383 0.232890875774 0.928588149643 0.233183509007 0.056478759250 -0.265271110111
0.130311777000 0.057803676781 -0.261336525354 0.931081210508 0.230265345683 0.929632998191 0.230381962764 0.055394362402 -0.263235867907
0.131644888000 0.056808528325 -0.259401515473 0.932243270190 0.228089229617 0.930647928309 0.227808663162 0.054516541177 -0.261225284892
0.132978000000 0.055815006216 -0.257496464094 0.933292918005 0.225631881108 0.932097763106 0.225617971448 0.053469021790 -0.259388703183
0.134311111000 0.054820596054 -0.255663849673 0.934590499574 0.223648297130 0.933047657828 0.223472773090 0.052617245839 -0.257446982351
0.135644222000 0.053940112214 -0.253922444276 0.935737103096 0.221129128583 0.933967423866 0.221201977563 0.051683582243 -0.255589485136
0.136977333000 0.052817524729 -0.252040264174 0.936525937966 0.218776787618 0.935513692086 0.218656404398 0.050794480857 -0.253677819701
0.138310444000 0.051942112458 -0.250369387404 0.937446424480 0.216872156979 0.936654904917 0.216996054242 0.049825584499 -0.252075218991
0.139643555000 0.051068458577 -0.248643987527 0.938431928668 0.215239836568 0.937127810748 0.214606192133 0.049000508312 -0.250254352803
0.140976666000 0.050181957422 -0.246859206691 0.939197567950 0.212766500662 0.938045484682 0.212398696286 0.048151563588 -0.248502396368
0.142309777000 0.049314978045 -0.245167990096 0.939889114276 0.210681190717 0.938935638706 0.210463949749 0.047292213506 -0.246922558819
0.143642888000 0.048492553105 -0.243499533783 0.941022950581 0.208465101311 0.940026568091 0.208161820735 0.046320671077 -0.245270356541
0.144976000000 0.047501605227 -0.241909300938 0.942095127472 0.206344106276 0.940784503240 0.206180219016 0.045592259177 -0.243639264260
0.146309111000 0.046737898932 -0.240483991026 0.942891129298 0.204192607933 0.941966386770 0.204044697662 0.044784108171 -0.241968949228
0.147642222000 0.045889082415 -0.238919671961 0.943627208303 0.202373866806 0.942836424815 0.202184687261 0.043837925171 -0.240378199027
0.148975333000 0.045052156432 -0.237338155929 0.944628166744 0.200279412879 0.943667545613 0.200305566500 0.043102991151 -0.238908388209
0.150308444000 0.044251340528 -0.235789971676 0.945217829897 0.198241816808 0.944220083189 0.198348180059 0.042156851454 -0.237501483745
0.151641555000 0.043393834837 -0.234366152681 0.946199632082 0.196546141442 0.945281774019 0.196542060069 0.041259071564 -0.236022588740
0.152974666000 0.042683270721 -0.233003350294 0.946846903386 0.194428210601 0.945746865289 0.194712791441 0.040513373237 -0.234630185782
0.154307777000 0.041920975142 -0.231551960299 0.947591097732 0.192848995711 0.946767865378 0.192679618802 0.039883013322 -0.233097435033
0.155640888000 0.041181692179 -0.230206000458 0.948159058390 0.190774978101 0.946973425115 0.190941149556 0.039133940764 -0.231781981069
0.156974000000 0.040483232023 -0.228773877368 0.949144328589 0.188883535666 0.947769022488 0.188922630749 0.038394310449 -0.230359760985
0.158307111000 0.039729752672 -0.227424291378 0.949933926400 0.187584431958 0.948869233509 0.186881230393 0.037670329232 -0.228858369153
0.159640222000 0.039033739860 -0.226061816386 0.949925266117 0.185528547483 0.949351732756 0.185348224976 0.036926439668 -0.227523563962
0.160973333000 0.038246657163 -0.224715621891 0.951174757974 0.183473094779 0.950128563979 0.183291684184 0.036184105532 -0.226333628885
0.162306444000 0.037711651750 -0.223413949333 0.951517099234 0.182069616665 0.950552121198 0.182132201826 0.035452855448 -0.225136744094
0.163639555000 0.036955073474 -0.222265363737 0.952367346262 0.180341279359 0.951156526903 0.180280627514 0.034778399192 -0.223773633919
0.164972666000 0.036388211154 -0.221076468938 0.952563993994 0.178620626751 0.951565725298 0.178925939379 0.034137244573 -0.222655058847
0.166305777000 0.035726184978 -0.219929660184 0.953266418314 0.176739680687 0.952284367104 0.177350113250 0.033523263081 -0.221360049647
0.167638888000 0.035159251604 -0.218620701987 0.954042390631 0.175889792209 0.952798415339 0.175705630597 0.032854015249 -0.220299861886
0.168972000000 0.034555108879 -0.217548890900 0.954482524179 0.173765550755 0.953385380224 0.174150932788 0.032347533558 -0.219116871342
0.170305111000 0.033980773370 -0.216304914376 0.955365955311 0.171878752680 0.954147956795 0.172480000420 0.031781263358 -0.217853359349
0.171638222000 0.033421750325 -0.215223989265 0.955446327183 0.170754907269 0.954211849371 0.171320572255 0.031120949779 -0.216796795511
0.172971333000 0.032933220392 -0.214015043320 0.956179470957 0.169085951296 0.954975643643 0.169787878862 0.030598461175 -0.215678126506
0.174304444000 0.032267045240 -0.212939549703 0.956591623718 0.167758369663 0.955546154178 0.168194779735 0.030041721740 -0.214670674737
0.175637555000 0.031795795690 -0.211908904015 0.957180909283 0.166225380890 0.955878755680 0.166762315772 0.029526516113 -0.213535110998
0.176970666000 0.031333333300 -0.210868113203 0.957438269552 0.164899902110 0.956406366472 0.164717504848 0.028945257108 -0.212430291982
0.178303777000 0.030707181673 -0.209802260404 0.958204107798 0.163199676727 0.957064949041 0.163736894754 0.028554943929 -0.211329019009
0.179636888000 0.030229020378 -0.208850873021 0.958146338985 0.162077525493 0.956893332735 0.162603280028 0.027850962147 -0.210404216802
0.180970000000 0.029642878286 -0.207915171929 0.958948761887 0.160685495766 0.957740025781 0.161460676291 0.027606916264 -0.209324799576
0.182303111000 0.029288641726 -0.206872662298 0.959663503180 0.159475026194 0.957905640534 0.160192753611 0.026969428504 -0.208311990082
0.183636222000 0.028774040725 -0.205832144919 0.959693600233 0.157970570639 0.958665079926 0.158285237484 0.026540886053 -0.207343205670
0.184969333000 0.028414771661 -0.204920554384 0.960084861192 0.157200724768 0.959088136064 0.156803507756 0.026022200711 -0.206314946692
0.186302444000 0.027904246334 -0.204071896759 0.960416649305 0.155698734926 0.958888375132 0.155837907838 0.025525804481 -0.205453634328
0.187635555000 0.027313433764 -0.203130608486 0.960674059112 0.154446141703 0.959602674040 0.154814935992 0.025205065940 -0.204445127044
0.188968666000 0.027044046584 -0.202227437171 0.961026885375 0.153381801692 0.960069756964 0.154205160869 0.024684873910 -0.203430765842
0.190301777000 0.026400896446 -0.201317494389 0.961569696417 0.152500485321 0.960340327582 0.152738063259 0.024240149017 -0.202533501143
0.191634888000 0.026117347427 -0.200410039129 0.962046295321 0.150949712854 0.960970004529 0.151715697608 0.023788696089 -0.201545898690
0.192968000000 0.025679421192 -0.199533509052 0.962123800667 0.150024546705 0.961437743998 0.149781691419 0.023319074761 -0.200804096091
0.194301111000 0.025216930973 -0.198695560595 0.962233205837 0.148605417228 0.961507356834 0.148716203217 0.022841414534 -0.199941081264
0.195634222000 0.024718217837 -0.197834869381 0.962735153382 0.147241237703 0.962118539660 0.147062489317 0.022479372629 -0.199147269444
0.196967333000 0.024329632627 -0.196934894367 0.963213238124 0.145946836876 0.962236170775 0.146521827244 0.022126416141 -0.198284092135
0.198300444000 0.024046439467 -0.196228815216 0.963773539221 0.145065474007 0.962850810309 0.144918850785 0.021713069074 -0.197363018463
0.199633555000 0.023473994771 -0.195462632159 0.963819644182 0.143851481590 0.962910466583 0.144277639474 0.021290011374 -0.196614396553
0.200966666000 0.023201563711 -0.194595112241 0.964191114408 0.142915394358 0.963236676898 0.143108274140 0.020892754571 -0.195755872575
0.202299777000 0.022677736747 -0.193805478175 0.964136057300 0.141948448475 0.963807635862 0.141929687763 0.020433650117 -0.195013925245
0.203632888000 0.022306077443 -0.193020254997 0.964499768632 0.141218314124 0.963826544694 0.140945083909 0.019947131095 -0.194146721763
0.204966000000 0.021952401753 -0.192218493478 0.964834315803 0.139996098635 0.964326087770 0.139753986304 0.019690770595 -0.193335349221
0.206299111000 0.021586509466 -0.191593625881 0.965317580364 0.138612627809 0.964238206330 0.138930507118 0.019477609695 -0.192572780004
0.207632222000 0.021201955639 -0.190736833248 0.965396269107 0.137919422774 0.964699012593 0.137751641054 0.019013906848 -0.191836159224
0.208965333000 0.020837436148 -0.190011606093 0.965532503976 0.137105298674 0.964820927968 0.136740830634 0.018475087092 -0.191004235740
0.210298444000 0.020452024280 -0.189337169674 0.966273682531 0.135942073158 0.965105954198 0.135826145200 0.018154251867 -0.190398895718
0.211631555000 0.020188049721 -0.188599386634 0.966380385510 0.135014790242 0.965483152322 0.135073725232 0.017863912295 -0.189641591947
0.212964666000 0.019893360958 -0.187845950778 0.966574150751 0.133744844643 0.965897606878 0.134226098873 0.017514354537 -0.188897416604
0.214297777000 0.019457858699 -0.187209640822 0.966654597852 0.132625700842 0.966133062320 0.133236995876 0.017083476146 -0.188222518591
0.215630888000 0.019134740920 -0.186393065267 0.967282543055 0.131925315000 0.966108768725 0.132301888276 0.016733257335 -0.187536957824
0.216964000000 0.018626289443 -0.185736314467 0.967317100529 0.131171229558 0.966676009004 0.131285184630 0.016369808123 -0.186777700331
0.218297111000 0.018388272917 -0.185082835557 0.967358738588 0.130251319643 0.966889774374 0.130059031714 0.015936043195 -0.186093367535
0.219630222000 0.018059525144 -0.184422266843 0.967861483346 0.128994101285 0.967134965307 0.129245903468 0.015678531962 -0.185352154006
0.220963333000 0.017739447972 -0.183793922135 0.967851218077 0.128031289550 0.967478814907 0.128643334039 0.015311051092 -0.184694870779
0.222296444000 0.017356445347 -0.183109340706 0.968091427443 0.127441161033 0.967628010226 0.127875691930 0.015037287555 -0.183996055016
0.223629555000 0.016960171475 -0.182474466151 0.968289860288 0.126894102166 0.967723333641 0.127152812925 0.014502843378 -0.183263216244
0.224962666000 0.016727571493 -0.181829937937 0.968606444881 0.125626498853 0.967822289715 0.125874710867 0.014176143726 -0.182649641906
0.226295777000 0.016486446519 -0.181266712404 0.968760655848 0.125026073428 0.967956199572 0.125193655546 0.013883579020 -0.181944538328
0.227628888000 0.016151264492 -0.180612547022 0.968813949238 0.123999972788 0.968255962214 0.123835373466 0.013522489576 -0.181370096330
0.228962000000 0.015726184557 -0.179941852228 0.969232255980 0.122883443019 0.968692667069 0.123283385902 0.013223229964 -0.180702224036
0.230295111000 0.015497713895 -0.179387354543 0.969364140341 0.122210307882 0.968866334733 0.122277863145 0.012860919728 -0.180108511144
0.231628222000 0.015069450301 -0.178726438091 0.969700869371 0.121052679717 0.969258189316 0.121555623312 0.012639111832 -0.179499744636
0.232961333000 0.014864002502 -0.178178376229 0.969622157954 0.120318963693 0.969420991268 0.120438691361 0.012296169705 -0.178891336337
0.234294444000 0.014549855795 -0.177686187622 0.969888434659 0.119652013426 0.969848333147 0.119834981041 0.011954170007 -0.178396509209
0.235627555000 0.014221161557 -0.177018702642 0.970254851604 0.118969942111 0.969808163939 0.118881950211 0.011660202120 -0.177829317665
0.236960666000 0.013912424528 -0.176407385484 0.970473365008 0.118417818557 0.969865882784 0.118169940825 0.011328425915 -0.177037966985
0.238293777000 0.013777541497 -0.175812181296 0.970514665157 0.117281361972 0.970192938938 0.117548172788 0.011004543829 -0.176553287709
0.239626888000 0.013451981271 -0.175171542572 0.970852654190 0.116525138152 0.970480915393 0.117031729736 0.010724016089 -0.175994532227
0.240960000000 0.013140874428 -0.174639871539 0.970735742088 0.115996202375 0.970831399653 0.115579245040 0.010482591390 -0.175418124390
0.242293111000 0.012869260787 -0.174122422714 0.970941989470 0.115354042902 0.970955282057 0.114978416375 0.010227070073 -0.174696960988
0.243626222000 0.012554245711 -0.173538657607 0.971261342411 0.114524840257 0.971007022348 0.114395471088 0.009909779910 -0.174205444767
0.244959333000 0.012456761861 -0.173046333135 0.971358320451 0.113794847708 0.971271801318 0.113359965578 0.009741646992 -0.173601801331
0.246292444000 0.012060059876 -0.172552303552 0.971536383895 0.112794824239 0.970988188066 0.112422573139 0.009423675772 -0.173045275056
0.247625555000 0.011772411595 -0.171912396950 0.971866286937 0.112594041845 0.971381898967 0.112186875022 0.009205456750 -0.172399331769
0.248958666000 0.011491079530 -0.171345627257 0.971800122005 0.111540909016 0.971499957562 0.111392524850 0.008838089545 -0.171879799515
0.250291777000 0.011249200771 -0.170910637864 0.971850969056 0.111081572032 0.971547764856 0.110329885564 0.008543354723 -0.171417118999
0.251624888000 0.010933733696 -0.170344847566 0.972356798752 0.110291556611 0.971747620452 0.109591556488 0.008464535769 -0.170987251993
0.252958000000 0.010736347617 -0.169782824483 0.972465489982 0.109464094783 0.971801080253 0.108784638072 0.008149263377 -0.170533777780
0.254291111000 0.010554993619 -0.169222326797 0.972642615322 0.109025646256 0.972125076839 0.108088413927 0.007933370532 -0.169906793274
0.255624222000 0.010374679919 -0.168689686353 0.972612342312 0.108436217292 0.972245090409 0.107699444973 0.007589585387 -0.169452604371
0.256957333000 0.010110404659 -0.168191266727 0.972584628543 0.107698733388 0.972463057415 0.107091840724 0.007395340364 -0.168912437300
0.258290444000 0.009891033795 -0.167763533660 0.973155868434 0.106722310149 0.972749520609 0.106169867283 0.007270459638 -0.168432917447
0.259623555000 0.009817008323 -0.167239993386 0.973073543992 0.106434819598 0.973058675155 0.105728685822 0.007009927850 -0.167856752509
0.260956666000 0.009493666723 -0.166711672896 0.973364181171 0.106002918446 0.972720252326 0.104966746335 0.006673201844 -0.167357616511
0.262289777000 0.009253294212 -0.166246645244 0.973583120817 0.105300406395 0.973024042904 0.104834603730 0.006493193210 -0.166795484541
0.263622888000 0.009157360030 -0.165711502605 0.973798381303 0.104635761452 0.973074755586 0.104109410399 0.006249987196 -0.166340241193
0.264956000000 0.008940238374 -0.165366547177 0.973682477470 0.104116059776 0.973567409632 0.103494418122 0.006058105780 -0.165817137802
0.266289111000 0.008825670187 -0.164830388847 0.973938169514 0.103906900853 0.973710549117 0.103075162792 0.005992384667 -0.165314802563
0.267622222000 0.008700519504 -0.164382891397 0.974631118016 0.103075424085 0.973822028110 0.102094142290 0.005803605664 -0.164959469548
0.268955333000 0.008461483175 -0.163755625371 0.973962764548 0.102553123751 0.973823428209 0.102203958668 0.005635806008 -0.164371301315
0.270288444000 0.008276558304 -0.163473977608 0.974355019979 0.101823917505 0.974062543446 0.100419540548 0.005414730501 -0.164021347061
0.271621555000 0.008129344241 -0.162862311426 0.974478025709 0.101082141131 0.974116276419 0.100410072174 0.005232862969 -0.163476937364
0.272954666000 0.008044897892 -0.162404759368 0.974631868184 0.100999416979 0.974412818431 0.099437175021 0.005033686019 -0.163022636975
0.274287777000 0.007762164797 -0.162096126443 0.974862288004 0.099620435234 0.974737057519 0.099089912255 0.004825504090 -0.162629985164
0.275620888000 0.007692774248 -0.161711958186 0.975365041229 0.099342447989 0.974817664725 0.098404200445 0.004669387023 -0.162126203585
0.276954000000 0.007620586862 -0.161210629438 0.975305322578 0.098762660193 0.974969556472 0.097972496460 0.004496950588 -0.161591033320
0.278287111000 0.007382447801 -0.160715094024 0.975366886715 0.098446906934 0.975018212419 0.097642980892 0.004288738987 -0.161262553561
0.279620222000 0.007222342525 -0.160360971350 0.975525818923 0.097484921252 0.975005720389 0.096544564642 0.004159163358 -0.160937159458
0.280953333000 0.007151147437 -0.159848102766 0.975553633682 0.097127527485 0.975448485598 0.096003351646 0.004026742794 -0.160523596678
0.282286444000 0.007009645496 -0.159484772270 0.975996028637 0.096359485267 0.975613182318 0.095657501174 0.003977719145 -0.159966492588
0.283619555000 0.006822763959 -0.158965166691 0.975872056736 0.096383256365 0.975538619713 0.095173824994 0.003830643725 -0.159502006094
0.284952666000 0.006771523501 -0.158640901424 0.975837794019 0.095408341757 0.975958523395 0.094607795638 0.003636284708 -0.159167344112
0.286285777000 0.006703361621 -0.158252900460 0.976347142080 0.094892507518 0.976205791454 0.093799924467 0.003549251853 -0.158834549765
0.287618888000 0.006564637560 -0.157810336321 0.976332731948 0.094534538347 0.976161292021 0.093727141990 0.003387227578 -0.158298373672
0.288952000000 0.006460417902 -0.157453085338 0.976609590146 0.093850690679 0.976365588356 0.092890163962 0.003325771487 -0.158021907878
0.290285111000 0.006411801844 -0.156993043239 0.976967573302 0.093720917351 0.976434992293 0.092639808651 0.003254556072 -0.157505841761
0.291618222000 0.006226101135 -0.156722610999 0.976966181193 0.092477415624 0.976529540996 0.091981728073 0.003167405048 -0.157158266479
0.292951333000 0.006171474867 -0.156332086920 0.976976675054 0.092393409914 0.976919077733 0.091332552881 0.003015105792 -0.156901206686
0.294284444000 0.006101122892 -0.155958040357 0.977222834506 0.091608024252 0.976797864467 0.090656934860 0.002852335685 -0.156456148170
0.295617555000 0.005880748218 -0.155612034904 0.977163580053 0.091423364844 0.976689284066 0.089936565958 0.002719072280 -0.156104284283
0.296950666000 0.005900034854 -0.155292342762 0.977515453848 0.090439438380 0.976985431856 0.089302633897 0.002740392997 -0.155645597839
0.298283777000 0.005914650695 -0.154861312651 0.977722604557 0.090342867987 0.977277274746 0.089106620674 0.002642888199 -0.155310285646
0.299616888000 0.005854261666 -0.154610928333 0.977550923827 0.089649916574 0.977493364912 0.088318375164 0.002376903146 -0.155024094908
0.300950000000 0.005735243082 -0.154218118182 0.977965683885 0.089138424406 0.977579092069 0.088011402482 0.002423655343 -0.154602608344
0.302283111000 0.005686766244 -0.153829176809 0.977678625833 0.088574592674 0.977616502663 0.087487514184 0.002257161263 -0.154368365554
0.303616222000 0.005544862347 -0.153539817025 0.977871500088 0.088113550521 0.977859522392 0.086741633539 0.002180653812 -0.154035019044
0.304949333000 0.005555056960 -0.153250955396 0.978147692585 0.087276436633 0.978094127363 0.086139763858 0.002076194687 -0.153738493901
0.306282444000 0.005485813798 -0.152908145589 0.978494194275 0.087049993934 0.978023769301 0.086085193999 0.002048915874 -0.153380024817
0.307615555000 0.005430841433 -0.152588981565 0.978646805390 0.086519975136 0.978091161086 0.085118266483 0.002150841980 -0.153049659323
0.308948666000 0.005384430544 -0.152234871125 0.978899015121 0.085917614407 0.978493822468 0.084390552380 0.001958849739 -0.152760627657
0.310281777000 0.005279428713 -0.151979498183 0.979042449862 0.085335804478 0.978612231145 0.083490588824 0.001929499060 -0.152535362239
0.311614888000 0.005280002972 -0.151679941134 0.978764770076 0.084836778023 0.978780996954 0.083276142145 0.001854823243 -0.152217860459
0.312948000000 0.005252890876 -0.151329313213 0.979433584137 0.084198737511 0.978734067890 0.083040979263 0.001851784362 -0.151893022356
0.314281111000 0.005109196481 -0.151321151571 0.979656119610 0.080606269082 0.978952182283 0.082965318969 0.001129710801 -0.151689396127
0.315614222000 0.005136779304 -0.151039234168 0.979747549895 0.080516915731 0.979004396546 0.082584914993 0.001139475625 -0.151251449789
0.316947333000 0.005078046001 -0.150786864360 0.980094869074 0.080316222624 0.979188106557 0.081227040846 0.001039233801 -0.151081050528
0.318280444000 0.004989218655 -0.150536123820 0.980110484770 0.079450395874 0.979359453230 0.080751907517 0.001017090912 -0.150813929742
0.319613555000 0.004788465391 -0.150191900133 0.979978342296 0.079100387133 0.979450262834 0.080398259519 0.000911412023 -0.150447303132
0.320946666000 0.004764736558 -0.150000658923 0.980112512925 0.078132244545 0.979318253925 0.079772230551 0.000696309759 -0.150326164743
0.322279777000 0.004713139043 -0.149748728768 0.980308286124 0.077702196926 0.979578076537 0.078922069014 0.000660495797 -0.150158579974
0.323612888000 0.004776770658 -0.149440603855 0.980463990901 0.077233230505 0.979429656995 0.078548671295 0.000583922868 -0.149879802132
0.324946000000 0.004683402777 -0.149271618849 0.980512071896 0.076796166609 0.979921181888 0.078005238366 0.000545832623 -0.149733452289
0.326279111000 0.004562606828 -0.149059153330 0.980752558317 0.075880517782 0.979757520110 0.077242322269 0.000430525696 -0.149430393865
0.327612222000 0.004496193837 -0.148814940955 0.981077775554 0.075056210614 0.980144814744 0.076749587386 0.000355098767 -0.149277073177
0.328945333000 0.004560370870 -0.148631630777 0.980892308708 0.074571430858 0.980256139061 0.075803508614 0.000165320689 -0.148972346945
0.330278444000 0.004472108984 -0.148359637687 0.981217927954 0.074543965266 0.980472418286 0.075769681245 0.000172095223 -0.148673497218
0.331611555000 0.004336329903 -0.148157385151 0.981388719662 0.073981272013 0.980431180095 0.074938136536 0.000052701379 -0.148481472639
0.332944666000 0.004287160871 -0.148009438474 0.981440688734 0.073358072128 0.980615956899 0.074605234655 0.000063998221 -0.148390567596
0.334277777000 0.004230298752 -0.147756438357 0.981374242255 0.072320427540 0.980939403244 0.074382936913 0.000146363245 -0.148218940010
0.335610888000 0.004212280960 -0.147543235588 0.981618822708 0.072067898646 0.980796360896 0.073528848846 -0.000008105174 -0.147860026138
0.336944000000 0.004168927791 -0.147319637162 0.981888838811 0.071776132849 0.980955216878 0.073155032956 -0.000007163450 -0.147759857180
0.338277111000 0.004030974672 -0.147129392644 0.981839560399 0.071115021108 0.980971951968 0.072649511399 -0.000158804234 -0.147453104525
0.339610222000 0.003941557076 -0.147019605152 0.981907844518 0.070359689469 0.981406941003 0.071547081980 -0.000369627534 -0.147315657270
0.340943333000 0.003967384989 -0.146722117407 0.981897345956 0.069867339218 0.980963792758 0.070998526646 -0.000293717367 -0.146960615372
0.342276444000 0.003920805284 -0.146641364091 0.982288746499 0.069202704118 0.981403296328 0.070661194974 -0.000365483115 -0.146973211839
0.343609555000 0.003787961229 -0.146300413479 0.982076840819 0.068495471538 0.981496851425 0.069759079533 -0.000476960321 -0.146664250944
0.344942666000 0.003834378139 -0.146132895034 0.982423483828 0.068192072348 0.981135153982 0.069987143694 -0.000547663549 -0.146500130566
0.346275777000 0.003796577928 -0.146012513215 0.982474886781 0.067269078879 0.981686899493 0.069344628014 -0.000570512325 -0.146309279125
0.347608888000 0.003706464449 -0.145748027815 0.982848192251 0.066951497987 0.981412869949 0.068640449372 -0.000599468965 -0.146223421396
0.348942000000 0.003654190449 -0.145572519853 0.982739613282 0.066388297413 0.981511387631 0.068149968367 -0.000696524478 -0.145985045784
0.350275111000 0.003636593636 -0.145467251624 0.982782254909 0.065555933235 0.981588348771 0.067569139222 -0.000701769699 -0.145841087191
0.351608222000 0.003606083937 -0.145191589399 0.982754108550 0.065218169670 0.981947555429 0.066366369761 -0.000773981968 -0.145825981733
0.352941333000 0.003561845648 -0.145038798775 0.982921519953 0.064736795183 0.981785264820 0.066100134787 -0.000921893498 -0.145381021602
0.354274444000 0.003581612599 -0.144936753149 0.983257416460 0.064294029453 0.982379289831 0.065854592818 -0.000980371195 -0.145338130412
0.355607555000 0.003546924099 -0.144794190736 0.983252642985 0.063728651131 0.982321828778 0.065501963214 -0.000948091584 -0.145320975492
0.356940666000 0.003464253536 -0.144720875665 0.983316215207 0.063027541576 0.982579361981 0.065343246242 -0.000967832621 -0.145147878329
0.358273777000 0.003447274931 -0.144468125824 0.983176329848 0.062373697789 0.982310737516 0.064024638248 -0.001016129107 -0.145001520674
0.359606888000 0.003385295573 -0.144395339968 0.983375257388 0.062347715173 0.982279473177 0.063311529489 -0.000986119178 -0.144817517519
0.360940000000 0.003420679273 -0.144258507582 0.983635817137 0.061069531430 0.983022588573 0.062998104473 -0.001157317668 -0.144762319483
0.362273111000 0.003345981021 -0.144053050765 0.983777134923 0.060698981317 0.982501990613 0.062240530448 -0.001203855631 -0.144495034437
0.363606222000 0.003240129649 -0.143975388970 0.983591629471 0.060289498795 0.983046767990 0.062164096650 -0.001184819194 -0.144486952040
0.364939333000 0.003245120489 -0.143885951947 0.983663739158 0.059616991520 0.982843967178 0.061655217873 -0.001142907903 -0.144246479996
0.366272444000 0.003198750924 -0.143683914324 0.983586663290 0.059545192081 0.982746328088 0.061132487072 -0.001063751801 -0.144160708897
0.367605555000 0.003178745774 -0.143614700423 0.983877161517 0.058536840856 0.983138618655 0.060918438552 -0.001174343619 -0.144038483068
0.368938666000 0.003192112652 -0.143449530077 0.983705112712 0.057950020215 0.983325152825 0.060158600829 -0.001226972421 -0.143917889069
0.370271777000 0.003101107324 -0.143392987551 0.983934753811 0.058409753693 0.983223926058 0.059077606493 -0.001273088712 -0.143902539966
0.371604888000 0.003116526999 -0.143246299077 0.984028870849 0.057337634612 0.983015031597 0.058832221474 -0.001470630081 -0.143627455949
0.372938000000 0.003035769365 -0.143131450237 0.983919496312 0.056718363925 0.983025133070 0.058430515418 -0.001492684465 -0.143575292816
0.374271111000 0.003105633806 -0.142995306346 0.983990530787 0.056168194683 0.983111841711 0.057694948866 -0.001385956337 -0.143392687444
0.375604222000 0.003236286974 -0.142898417077 0.984175180083 0.056139679805 0.983132778614 0.057610530184 -0.001371952788 -0.143382022688
0.376937333000 0.003152511743 -0.142799898235 0.984352476884 0.055458606200 0.983572658514 0.057027347487 -0.001368803732 -0.143246653639
0.378270444000 0.003121623891 -0.142591590959 0.984170869991 0.054851674271 0.983556378091 0.056084103475 -0.001497619823 -0.143249877555
0.379603555000 0.003031908875 -0.142559471668 0.984385627615 0.053907563822 0.983501690097 0.056009687004 -0.001425260298 -0.143083430729
0.380936666000 0.002993573959 -0.142414062755 0.984555611561 0.053331631279 0.983143732544 0.055570660402 -0.001496904734 -0.142922922694
0.382269777000 0.003025340477 -0.142364821383 0.984803531642 0.052800293792 0.983184585760 0.054968211963 -0.001475749597 -0.142837685564
0.383602888000 0.003001969889 -0.142241893332 0.984552361721 0.052440872248 0.983413582632 0.054601062236 -0.001682859458 -0.142809669183
0.384936000000 0.002948397139 -0.142072280858 0.984602044110 0.052291787577 0.983596610298 0.053920959114 -0.001693807529 -0.142694085468
0.386269111000 0.002935612688 -0.141952458813 0.984096803654 0.051713370440 0.983450203950 0.053538289945 -0.001789700536 -0.142622666072
0.387602222000 0.002888860002 -0.141910944345 0.984721928394 0.051090307003 0.983117805077 0.052879473638 -0.001855038626 -0.142473512232
0.388935333000 0.002865246049 -0.141804449296 0.984371392090 0.050264291469 0.983572888217 0.052723399713 -0.001870844567 -0.142479180864
0.390268444000 0.002821805669 -0.141671965799 0.984363656011 0.049574165905 0.983503278641 0.052073759300 -0.001976411797 -0.142431372340
0.391601555000 0.002702675396 -0.141645313670 0.984355408110 0.048698609016 0.983496012830 0.051493790802 -0.002055927465 -0.142358904263
0.392934666000 0.002845177798 -0.141597937601 0.984637127911 0.048719281961 0.983673651740 0.051232330126 -0.002157808115 -0.142256307146
0.394267777000 0.002699329313 -0.141520165253 0.984507258226 0.047977774529 0.983519130899 0.050699085353 -0.002232566632 -0.142147892254
0.395600888000 0.002744746763 -0.141448789572 0.984716881046 0.047192620465 0.983511396789 0.050332793224 -0.002068768242 -0.142143797610
0.396934000000 0.002640581998 -0.141315403558 0.984380186578 0.046695314432 0.983586583891 0.049611190134 -0.002155563693 -0.141881453302
0.398267111000 0.002605907055 -0.141346532727 0.984905922816 0.046877731028 0.983689782944 0.049198802998 -0.002204514968 -0.141926183398
0.399600222000 0.002603476623 -0.141229297935 0.984894076211 0.046246153906 0.983776346133 0.048313651993 -0.002301345313 -0.141897582260
0.400933333000 0.002636762104 -0.141072356172 0.984836219030 0.045536291294 0.983771578378 0.047792397782 -0.002375604947 -0.141806436404
0.402266444000 0.002472574326 -0.141103247401 0.984915034704 0.045267751715 0.983599487942 0.047386421097 -0.002425574939 -0.141719254630
0.403599555000 0.002493413618 -0.141019203810 0.984608947938 0.044621253739 0.983616182270 0.047112357988 -0.002454654841 -0.141744017149
0.404932666000 0.002492091940 -0.140933062797 0.984703761027 0.044205215325 0.983586943055 0.047030870033 -0.002493609361 -0.141621855641
0.406265777000 0.002384108346 -0.140849911865 0.984757196413 0.043748048312 0.983519284093 0.046413287858 -0.002587280011 -0.141436256964
0.407598888000 0.002459451261 -0.140805268816 0.984437743273 0.043282047341 0.983320273817 0.045735619905 -0.002620220327 -0.141369865704
0.408932000000 0.002364580620 -0.140789222605 0.984670970316 0.043224359568 0.983505088233 0.045545387053 -0.002768632975 -0.141375201158
0.410265111000 0.002256610753 -0.140738742969 0.984906457130 0.042325698010 0.983603662859 0.045371131754 -0.002860125132 -0.141255734036
0.411598222000 0.002361513449 -0.140643697780 0.984577693771 0.042112254891 0.983616136198 0.044563992990 -0.002923051672 -0.141208561129
0.412931333000 0.002228486215 -0.140515452177 0.984735038879 0.041613868683 0.983379935220 0.043999762498 -0.003003768587 -0.141215941334
0.414264444000 0.002170010576 -0.140531445698 0.984589773564 0.041191121564 0.983323552637 0.043806683882 -0.002945698054 -0.141099096729
0.415597555000 0.002119689580 -0.140400078158 0.984666148949 0.040665558513 0.983498452535 0.043294950517 -0.002987890471 -0.141022571213
0.416930666000 0.002008117671 -0.140463262480 0.984804351135 0.039976183450 0.983187772043 0.042807743320 -0.003005659700 -0.140982902550
0.418263777000 0.002063731684 -0.140375486271 0.984426161485 0.039920975388 0.983400884068 0.042432071851 -0.003042995360 -0.141011837139
0.419596888000 0.001916693504 -0.140358869260 0.984697602847 0.039840078334 0.983350216546 0.042332862595 -0.003205686420 -0.140926760353
0.420930000000 0.001896286140 -0.140160968105 0.984383899478 0.038501179687 0.983614550075 0.041839425204 -0.003031817484 -0.141014683857
0.422263111000 0.001851461191 -0.140231782328 0.984665754647 0.038430298057 0.983135355748 0.041297584141 -0.003329263811 -0.140846902610
0.423596222000 0.001962565927 -0.140180464039 0.984481801014 0.038013828889 0.983101207545 0.041310317626 -0.003305512578 -0.140810691046
0.424929333000 0.001795144764 -0.140222398992 0.984727297799 0.037641824717 0.983339757830 0.041168880820 -0.003431032155 -0.140794193592
0.426262444000 0.001880996042 -0.140147499646 0.984558431408 0.037222640593 0.983097529904 0.040668384552 -0.003565861045 -0.140762029408
0.427595555000 0.001749268650 -0.140197624712 0.984535620055 0.037001362795 0.983220099234 0.039976454535 -0.003609351783 -0.140651897172
0.428928666000 0.001693215220 -0.140078113468 0.984540246057 0.036583752906 0.983235290649 0.040124456188 -0.003824824075 -0.140686193997
0.430261777000 0.001634212271 -0.140012663112 0.984317102006 0.036195948965 0.983249859628 0.039501541229 -0.003861419357 -0.140689893642
0.431594888000 0.001603664707 -0.139947621464 0.984292970211 0.035789439854 0.983328875870 0.039280574050 -0.003826626908 -0.140685410347
0.432928000000 0.001510023697 -0.140065560570 0.984520806679 0.035036710345 0.982968614406 0.038205591314 -0.003947584339 -0.140562240130
0.434261111000 0.001663839220 -0.139935777391 0.984457302063 0.034773374149 0.983310222997 0.038094352753 -0.003923847305 -0.140568433590
0.435594222000 0.001448756984 -0.139958463421 0.984516291171 0.034732430369 0.983043797204 0.038042365041 -0.004067194161 -0.140473417088
0.436927333000 0.001326252217 -0.139931847030 0.984705131996 0.033878398921 0.983143629567 0.037674013238 -0.003984304140 -0.140581993532
0.438260444000 0.001236904558 -0.139910039371 0.984548911183 0.033529262903 0.982752297378 0.037238277892 -0.004222468738 -0.140566789814
0.439593555000 0.001242414287 -0.139860747334 0.984453657355 0.033254775673 0.982705539635 0.036557304909 -0.004227080479 -0.140562410312
0.440926666000 0.001100482642 -0.139864107229 0.984113288297 0.033244758021 0.983172325573 0.036242391534 -0.004276705370 -0.140535261910
0.442259777000 0.001182203325 -0.139883170403 0.983944552409 0.032843626953 0.982896463452 0.035786294109 -0.004377105110 -0.140416708436
0.443592888000 0.000877688629 -0.139767401432 0.984255331023 0.032329069888 0.983272759169 0.035384119293 -0.004436055045 -0.140448175431
0.444926000000 0.001048455507 -0.139758065196 0.983871974240 0.032310432677 0.982857823170 0.035175731571 -0.004479422964 -0.140460040693
0.446259111000 0.000856391618 -0.139777665328 0.984190178478 0.031930446558 0.983118521885 0.034785223298 -0.004592390189 -0.140473748374
0.447592222000 0.000722908459 -0.139729105699 0.983913138363 0.031578732486 0.983072275492 0.035009835542 -0.004656477457 -0.140348385369
0.448925333000 0.000749351906 -0.139747364270 0.983930514432 0.030855527676 0.982490197454 0.034708316586 -0.004989357975 -0.140314127391
0.450258444000 0.000658617507 -0.139720116764 0.983957914661 0.030613115431 0.982633033374 0.034286185997 -0.004880977158 -0.140428426055
0.451591555000 0.000465781419 -0.139747032245 0.983967954927 0.030102338094 0.982632215942 0.033552013601 -0.004809743737 -0.140221870273
0.452924666000 0.000456468210 -0.139714361674 0.983819816233 0.030177717878 0.982923510690 0.033265480010 -0.005171282270 -0.140333488247
0.454257777000 0.000530052355 -0.139658327825 0.983861124793 0.029268175957 0.982769736622 0.032583411861 -0.005200735039 -0.140490419056
0.455590888000 0.000381239658 -0.139655051249 0.984129820231 0.029113212042 0.982632219004 0.032853014089 -0.005227686547 -0.140264852247
0.456924000000 0.000216991246 -0.139626620949 0.983810838720 0.028947011159 0.982633501499 0.032911738802 -0.005382159557 -0.140337274467
0.458257111000 0.000190331588 -0.139700225907 0.983849433969 0.028652993464 0.982579611047 0.032151850147 -0.005550563967 -0.140339494081
0.459590222000 0.000195299492 -0.139662353010 0.983934643586 0.028255781193 0.982442070999 0.031019783609 -0.005711722797 -0.140377801002
0.460923333000 0.000024519729 -0.139646625493 0.983588181184 0.027863989532 0.982849114171 0.031474695130 -0.005795160516 -0.140377862977
0.462256444000 0.000046362020 -0.139766779531 0.983645829330 0.027671337303 0.982679515643 0.030765401160 -0.006053790255 -0.140352957148
0.463589555000 0.000054388367 -0.139662780291 0.983562532136 0.027432542395 0.982756920196 0.030805233067 -0.006054883082 -0.140408502938
0.464922666000 -0.000229950363 -0.139621195258 0.983382258765 0.027292491901 0.982743127885 0.031216425732 -0.006195547823 -0.140282808829
0.466255777000 -0.000279247626 -0.139739448087 0.983644727462 0.027047940663 0.982683842604 0.030564463538 -0.006241521011 -0.140262117660
0.467588888000 -0.000314637857 -0.139876742187 0.983860096435 0.026239395596 0.981952217088 0.029373878048 -0.006242157595 -0.140442810568
0.468922000000 -0.000452669234 -0.139707851528 0.983756895336 0.025932045431 0.982269024050 0.029876018237 -0.006316298233 -0.140327945279
0.470255111000 -0.000549816961 -0.139668248087 0.983757074243 0.025924345570 0.982458517736 0.029002269183 -0.006380389410 -0.140337028752
0.471588222000 -0.000534645117 -0.139674590624 0.983790597631 0.025437235855 0.982405377587 0.028814527480 -0.006492600947 -0.140323218715
0.472921333000 -0.000719531845 -0.139679586998 0.983828519832 0.025067281035 0.982829043814 0.028709116999 -0.006612155613 -0.140223168834
0.474254444000 -0.000846912055 -0.139760091251 0.983690455119 0.024840901431 0.982104139257 0.028902572778 -0.006808097629 -0.140312679231
0.475587555000 -0.000910845426 -0.139702267144 0.983723987660 0.024760450579 0.982178681243 0.028616176482 -0.006910502061 -0.140142031265
0.476920666000 -0.001088266523 -0.139687100945 0.983318044640 0.024477539457 0.982412021605 0.028113360375 -0.007083567232 -0.140293046526
0.478253777000 -0.001075368585 -0.139678503155 0.983704578243 0.024346498508 0.982356835446 0.027858874845 -0.007177371903 -0.140132028850
0.479586888000 -0.001201134212 -0.139713364698 0.983643244511 0.024222767407 0.982455939493 0.027533329967 -0.007282040024 -0.140188197992
0.480920000000 -0.001228019582 -0.139767264130 0.983383936725 0.023707833454 0.982344552117 0.027015819385 -0.007488068333 -0.140221914195
0.482253111000 -0.001360078331 -0.139731869427 0.983625267398 0.023104222869 0.982639881371 0.026823968443 -0.007566585082 -0.140196449795
0.483586222000 -0.001385635764 -0.139895484674 0.983508269705 0.022896808353 0.982334731740 0.026386854762 -0.007738766723 -0.140257563683
0.484919333000 -0.001452923193 -0.139786795453 0.983181597350 0.022649907690 0.982749040803 0.025837383875 -0.007792873892 -0.140279366421
0.486252444000 -0.001567161559 -0.139938785479 0.983434692659 0.022651290175 0.982314013466 0.025076967600 -0.008035033652 -0.140353092515
0.487585555000 -0.001824100134 -0.139813275573 0.983522835273 0.022161254293 0.982379280278 0.025917440297 -0.008002111266 -0.140273867151
0.488918666000 -0.001891832777 -0.139856658037 0.983302073862 0.022123576046 0.982267918626 0.024614421422 -0.008203359068 -0.140297697658
0.490251777000 -0.001977632692 -0.139829866519 0.983420729791 0.021834172635 0.982279198034 0.025145431082 -0.008437162824 -0.140210292925
0.491584888000 -0.002082822861 -0.139720719456 0.982786393052 0.021348333959 0.982245920060 0.025317726228 -0.008578558580 -0.140189582413
0.492918000000 -0.002086954892 -0.139748274809 0.983611145245 0.021351290188 0.982476189659 0.025237954868 -0.008519400590 -0.139993965723
0.494251111000 -0.002309524650 -0.139649138386 0.983148967588 0.020642851211 0.982388263627 0.024971135436 -0.008791143063 -0.140003526479
0.495584222000 -0.002423338572 -0.139680300188 0.983395437442 0.021053859431 0.982189007307 0.024662588505 -0.008931346518 -0.140049706127
0.496917333000 -0.002474209742 -0.139757199613 0.982981591088 0.021142184117 0.981803210760 0.024333686601 -0.009181772596 -0.139944690980
0.498250444000 -0.002454405951 -0.139905649151 0.983064523966 0.020519952118 0.982556992265 0.023563393988 -0.009180209640 -0.140027015944
0.499583555000 -0.002775914631 -0.139726173547 0.983055458401 0.019870435010 0.982151579273 0.023319078533 -0.009305830743 -0.140010233336
0.500916666000 -0.002744098617 -0.139738553399 0.983177790580 0.019400903820 0.982272564978 0.023183746909 -0.009270012080 -0.140117621631
0.502249777000 -0.002749987171 -0.139677145946 0.983195275258 0.019715515294 0.982399993844 0.022156604434 -0.009555132917 -0.140037887920
0.503582888000 -0.002864621112 -0.139752772913 0.982882967700 0.018779686860 0.982208721631 0.021762366232 -0.009699792840 -0.140298074869
0.504916000000 -0.003095534858 -0.139822809756 0.982809214850 0.018347757719 0.981839274341 0.022158189769 -0.009904257118 -0.140106024134
0.506249111000 -0.003215392335 -0.139716903589 0.982719970328 0.018407848609 0.982051680721 0.021826650207 -0.010049443496 -0.139932328608
0.507582222000 -0.003148881339 -0.139789535708 0.983050006289 0.018173341027 0.982124409882 0.021123466873 -0.010062660778 -0.140103582676
0.508915333000 -0.003412511458 -0.139695396599 0.983088386434 0.017708488580 0.982072129933 0.021138316959 -0.010154945128 -0.140077759376
0.510248444000 -0.003422244651 -0.139634613124 0.982758970204 0.017911088599 0.982050510543 0.021146559085 -0.010345949839 -0.140021210320
0.511581555000 -0.003418048648 -0.139668056248 0.983157003699 0.017660492771 0.982238123163 0.020707462059 -0.010476325796 -0.139938525670
0.512914666000 -0.003575710949 -0.139626052706 0.982823301871 0.016978269915 0.982042805994 0.020215581710 -0.010679677724 -0.139975784901
0.514247777000 -0.003706965539 -0.139720538436 0.983051352148 0.016712201680 0.982168233744 0.019925922611 -0.010724778820 -0.139879686821
0.515580888000 -0.003815697169 -0.139765864595 0.982906000733 0.016626681007 0.982018431331 0.019745624633 -0.011042609373 -0.139868124665
0.516914000000 -0.003935200266 -0.139697032749 0.982613092756 0.016006999562 0.981845387719 0.019692895534 -0.011016717686 -0.139929311994
0.518247111000 -0.004002867100 -0.139507605169 0.981373970193 0.016461128609 0.981558742576 0.019682230493 -0.011554199482 -0.139784815113
0.519580222000 -0.004150183632 -0.139600293426 0.982976765234 0.016513883262 0.982050282611 0.019267499022 -0.011332720740 -0.139617874481
0.520913333000 -0.004148932484 -0.139656873358 0.982513277668 0.015965542597 0.982166842172 0.018690679386 -0.011453608321 -0.139839261018
0.522246444000 -0.004277415997 -0.139410791632 0.982598809146 0.016325914938 0.982061856890 0.018896391590 -0.011582130604 -0.139582192802
0.523579555000 -0.004387813225 -0.139456543815 0.982796558517 0.015653245476 0.982061995423 0.018534348420 -0.011686722352 -0.139694826757
0.524912666000 -0.004517576517 -0.139445629375 0.982204379494 0.015496753212 0.981608993593 0.018180246155 -0.011857802147 -0.139650049455
0.526245777000 -0.004396261949 -0.139310814766 0.983152043577 0.015279003600 0.982462572398 0.018293852015 -0.011701488690 -0.139447427947
0.527578888000 -0.004588421860 -0.139201964472 0.982862663440 0.015431949908 0.982130090789 0.018261128818 -0.011939934875 -0.139388390124
0.528912000000 -0.004469510722 -0.139409540529 0.983103853424 0.015133844557 0.982242602028 0.017476612308 -0.012114156797 -0.139455530038
0.530245111000 -0.004745389436 -0.139350956453 0.982435628184 0.014493403739 0.982060571088 0.017701233592 -0.012184930001 -0.139394013879
0.531578222000 -0.004761242294 -0.139379690907 0.983017937735 0.014410963954 0.982142502844 0.017230298134 -0.012176597843 -0.139207075463
0.532911333000 -0.004875798803 -0.139229472049 0.982867793134 0.014035315553 0.981798905772 0.017296761223 -0.012410650332 -0.139136470171
0.534244444000 -0.005057300000 -0.139213832544 0.983276300443 0.014010936320 0.981794706253 0.017184393762 -0.012452644850 -0.139249422701
0.535577555000 -0.005008881686 -0.139174920495 0.982644462502 0.013929662696 0.982231638763 0.016986931161 -0.012543499375 -0.139068804799
0.536910666000 -0.004907664545 -0.139145414973 0.982653067758 0.013559006597 0.982316201184 0.016890241302 -0.012617227635 -0.139074370503
0.538243777000 -0.004967544114 -0.139125210780 0.982316434562 0.013250360354 0.982463003278 0.016652811042 -0.012729324765 -0.139151629047
0.539576888000 -0.005035171831 -0.139082899757 0.982776320854 0.013230594617 0.982497346714 0.016574462424 -0.012785967961 -0.139063739772
0.540910000000 -0.005011214771 -0.139037398069 0.982949678823 0.013114628873 0.982512885495 0.016285799924 -0.012859912797 -0.138850028009
0.542243111000 -0.005066759270 -0.139063877600 0.982921189007 0.012338446245 0.982410072900 0.015880570197 -0.012957749046 -0.139012479726
0.543576222000 -0.005144101572 -0.139042730991 0.983147221103 0.012434622366 0.982333731149 0.015815628924 -0.012909342638 -0.138936566987
0.544909333000 -0.005177051994 -0.138985861953 0.982827307017 0.012368633548 0.982595538047 0.015586161391 -0.012809658811 -0.138861386485
0.546242444000 -0.005178105146 -0.138985900245 0.983569457586 0.012432551646 0.982798799146 0.015132077549 -0.012986892237 -0.138842460734
0.547575555000 -0.005198057681 -0.138837645251 0.983293557958 0.012239491837 0.982688215668 0.015247221836 -0.013073353300 -0.138667469679
0.548908666000 -0.005245739925 -0.138784714255 0.982768433592 0.011859661676 0.982601600028 0.014927315721 -0.013185924118 -0.138832662346
0.550241777000 -0.005307171543 -0.138735680458 0.983164129940 0.011791609785 0.982614313644 0.014685126240 -0.013223410803 -0.138781213803
0.551574888000 -0.005245145517 -0.138687906310 0.983304269078 0.011389688563 0.982645137409 0.014817651882 -0.013165158487 -0.138668716353
0.552908000000 -0.005285942839 -0.138661765824 0.982931517861 0.011406348278 0.982685900175 0.014482665761 -0.013267911931 -0.138587127828
0.554241111000 -0.005289746708 -0.138719361270 0.983237185454 0.010933717905 0.982727469778 0.014094504815 -0.013308790180 -0.138578529076
0.555574222000 -0.005320900688 -0.138624763121 0.983155888984 0.010665407982 0.982915857113 0.014337522428 -0.013409177892 -0.138512580736
0.556907333000 -0.005326550599 -0.138668785180 0.983327767485 0.010396357693 0.982866901373 0.013796232858 -0.013499718047 -0.138518691886
0.558240444000 -0.005354499869 -0.138608831522 0.983297352747 0.010153440992 0.983352868086 0.013825495843 -0.013486204615 -0.138453361713
0.559573555000 -0.005344007923 -0.138587910459 0.983525272929 0.010234601678 0.983147500439 0.013550105956 -0.013479745560 -0.138491468190
0.560906666000 -0.005280284595 -0.138700493714 0.983556556734 0.009947707933 0.983100533968 0.012571741427 -0.013672881665 -0.138647019325
0.562239777000 -0.005340927512 -0.138697124635 0.983620875637 0.009327076216 0.983123863472 0.012506027872 -0.013628431838 -0.138625892593
0.563572888000 -0.005293291369 -0.138591946341 0.983554231634 0.009006015765 0.983253053559 0.012311997970 -0.013743131503 -0.138578390815
0.564906000000 -0.005355505667 -0.138614955900 0.983391140365 0.008907870243 0.982981255441 0.012352816582 -0.013818535507 -0.138511054301
0.566239111000 -0.005300906567 -0.138601294452 0.983629956932 0.008720047061 0.982825801466 0.012179012232 -0.013776348124 -0.138507665572
0.567572222000 -0.005266806400 -0.138518326275 0.983713480177 0.008429647047 0.983155130130 0.012078573968 -0.013760842623 -0.138451128246
0.568905333000 -0.005261890057 -0.138521911273 0.983822236221 0.008433383215 0.983252895298 0.011825479924 -0.013758439886 -0.138370547720
0.570238444000 -0.005266916975 -0.138381724829 0.983727510492 0.008236384863 0.983446244280 0.011789081937 -0.013863909216 -0.138302446780
0.571571555000 -0.005255219668 -0.138525543920 0.983728210319 0.007881693485 0.983464475760 0.011682748631 -0.013749679202 -0.138234526921
0.572904666000 -0.005183782302 -0.138427696039 0.983748954563 0.007998386222 0.983572283077 0.011819493210 -0.013746794687 -0.138183412506
0.574237777000 -0.005163014012 -0.138374901664 0.983980650546 0.008164690429 0.983584055110 0.010830755028 -0.013858014067 -0.138227671204
0.575570888000 -0.005164633554 -0.138389385628 0.983810232293 0.007582467009 0.983780377927 0.011188507385 -0.013798577361 -0.138203660477
0.576904000000 -0.005128987126 -0.138381836589 0.983984094807 0.007461470301 0.983975222138 0.010796812128 -0.013837196543 -0.138100838685
0.578237111000 -0.005102747398 -0.138356592384 0.984232561764 0.006872975409 0.983449492785 0.010513662487 -0.013960312290 -0.138227977800
0.579570222000 -0.005158852937 -0.138454578626 0.983955264699 0.006520748351 0.983649607215 0.010401950864 -0.013888530501 -0.138230080265
0.580903333000 -0.005033350366 -0.138412906509 0.983957161585 0.006189824057 0.984177386974 0.010418676735 -0.013898138815 -0.138306871646
0.582236444000 -0.005029842800 -0.138443082730 0.984308049679 0.006319038161 0.983870517620 0.009262734593 -0.013998550993 -0.138368634551
0.583569555000 -0.004956732529 -0.138419148039 0.984304875599 0.006000484862 0.983815407587 0.009375386293 -0.014003526120 -0.138313153989
0.584902666000 -0.004935248220 -0.138325206483 0.984224791946 0.006103845591 0.984087513993 0.009463607494 -0.013963383900 -0.138402288051
0.586235777000 -0.004903657305 -0.138313398973 0.984176456405 0.005812860224 0.984268236634 0.009186954350 -0.014032042638 -0.138454609684
0.587568888000 -0.004869591193 -0.138552764237 0.984466480961 0.005589095825 0.984613470352 0.008306948223 -0.013963657064 -0.138550530881
0.588902000000 -0.004940715599 -0.138518076188 0.984303677359 0.005267708864 0.983941449198 0.008181164000 -0.014049904998 -0.138544998867
0.590235111000 -0.004869418317 -0.138543146855 0.984649016575 0.004780270462 0.983980313216 0.008034160309 -0.014107659140 -0.138582983949
0.591568222000 -0.004949669092 -0.138545861290 0.984337848228 0.004611934919 0.984226106935 0.007801676233 -0.014113708178 -0.138614031495
0.592901333000 -0.004873480266 -0.138581792585 0.984790984658 0.004558629565 0.984193819802 0.008030948574 -0.014059111927 -0.138566567067
0.594234444000 -0.004831816975 -0.138634956465 0.985105621065 0.004286745821 0.984482528627 0.007234953100 -0.013975439344 -0.138612013755
0.595567555000 -0.004818034763 -0.138568371086 0.984669675978 0.004404866943 0.984143065428 0.006978499796 -0.014133901556 -0.138568540995
0.596900666000 -0.004877582639 -0.138646455825 0.984520533229 0.003902813579 0.984031670255 0.006393357185 -0.014214478857 -0.138637797910
0.598233777000 -0.004772871069 -0.138604621809 0.984755647181 0.003582773639 0.984385285602 0.006598538207 -0.014155080820 -0.138709088140
0.599566888000 -0.004884533310 -0.138700481380 0.984735028080 0.003477774540 0.984281253094 0.006141545774 -0.014303149299 -0.138782164558
0.600900000000 -0.004661998955 -0.138651239548 0.985471527330 0.003035673721 0.984879452379 0.006530297717 -0.014255020746 -0.138930799713
0.602233111000 -0.004771119149 -0.138705905478 0.985107550842 0.002883777150 0.984354416768 0.005740415225 -0.014314907909 -0.139013627111
0.603566222000 -0.004635453950 -0.138796407111 0.984952868648 0.002648125594 0.985014675999 0.005652955907 -0.014246852631 -0.139027009605
0.604899333000 -0.004661681086 -0.138664804667 0.985179479497 0.002940410186 0.984663345445 0.005413013567 -0.014239860225 -0.138874585551
0.606232444000 -0.004646425714 -0.138811255997 0.984999817693 0.002333169480 0.984500245188 0.005063503245 -0.014298317766 -0.138895961798
0.607565555000 -0.004634803498 -0.138763491820 0.984981287408 0.001958020613 0.984232389992 0.005383193483 -0.014319121931 -0.138998387824
0.608898666000 -0.004512972329 -0.138866576217 0.985517693509 0.001853725561 0.984626105204 0.005042066288 -0.014317363024 -0.139027400060
0.610231777000 -0.004576463082 -0.138873925706 0.985175560281 0.002109919566 0.984760458828 0.003971947352 -0.014254042797 -0.139123320516
0.611564888000 -0.004565375570 -0.138959131057 0.985233295871 0.001525648790 0.984815186694 0.003883438300 -0.014288957030 -0.139095621038
0.612898000000 -0.004535055670 -0.139007615889 0.985278977840 0.001172366722 0.984724396109 0.003789213791 -0.014348928266 -0.139094374415
0.614231111000 -0.004464092044 -0.139013047175 0.984921680664 0.001370958347 0.984367038152 0.004649663377 -0.014293392261 -0.139056413718
0.615564222000 -0.004518811866 -0.139076090559 0.985568596531 0.001189506323 0.984191316222 0.003274414596 -0.014438419843 -0.139266379538
0.616897333000 -0.004371684813 -0.139171531093 0.985882921344 0.000646001884 0.984941731822 0.003444375752 -0.014433693084 -0.139237066038
0.618230444000 -0.004427912144 -0.139283372354 0.985398878074 -0.000254852584 0.985133302457 0.002797312230 -0.014534852512 -0.139319239280
0.619563555000 -0.004507421878 -0.139281585938 0.984908096850 -0.000533128239 0.985009067521 0.002237007871 -0.014506939239 -0.139383626981
0.620896666000 -0.004391959050 -0.139377362026 0.985421858646 -0.000942408969 0.985340359373 0.002642916794 -0.014513893116 -0.139403348813
0.622229777000 -0.004381381439 -0.139534347866 0.985045815933 -0.001423437604 0.985582771059 0.001489697040 -0.014511511747 -0.139495649114
0.623562888000 -0.004337970335 -0.139496080699 0.985415194698 -0.000885029881 0.985868879973 0.001977326073 -0.014452544941 -0.139518323956
0.624896000000 -0.004354054294 -0.139563976721 0.984966350920 -0.001138126352 0.984914659976 0.000798929832 -0.014600413062 -0.139429420551
0.626229111000 -0.004292751106 -0.139564246573 0.985754836558 -0.001745466319 0.985247684463 0.001282281810 -0.014558542024 -0.139568772239
0.627562222000 -0.004321329058 -0.139660464426 0.985470045107 -0.002473074622 0.985003949373 0.001049109658 -0.014486971308 -0.139703169452
0.628895333000 -0.004359217060 -0.139710232264 0.986010753633 -0.002646442111 0.985351065738 0.001048448865 -0.014496486664 -0.139754591991
0.630228444000 -0.004276350812 -0.139732059346 0.986310566179 -0.002823512093 0.985074704595 0.000294768423 -0.014504534544 -0.139902658645
0.631561555000 -0.004303891499 -0.139835800262 0.985815466553 -0.003541788451 0.985797832486 0.000212162383 -0.014536241062 -0.139939569931
0.632894666000 -0.004388394753 -0.139856578336 0.985669956393 -0.003270238098 0.985333803903 -0.000267732693 -0.014499108761 -0.140061987648
0.634227777000 -0.004282023466 -0.139947595223 0.986299445475 -0.004156395586 0.985477261040 -0.000595021135 -0.014529597142 -0.140084110992
0.635560888000 -0.004309010587 -0.139974369652 0.985877978752 -0.003821349311 0.985390626701 -0.000797308845 -0.014597170929 -0.140102714795
0.636894000000 -0.004251478533 -0.140044158020 0.985135928599 -0.004490829319 0.984921860497 -0.000953895155 -0.014641968519 -0.140272433340
0.638227111000 -0.004156684636 -0.140105083059 0.986160844681 -0.003569856297 0.984912614545 -0.001164029725 -0.014610969008 -0.140422251696
0.639560222000 -0.004264404091 -0.140207019795 0.985675707043 -0.004923752506 0.985111395469 -0.001887372815 -0.014637385934 -0.140341007015
0.640893333000 -0.004290016356 -0.140328480747 0.985841365162 -0.005180488348 0.985353960076 -0.002155308127 -0.014601192153 -0.140481919980
0.642226444000 -0.004226828605 -0.140318848940 0.985932476953 -0.005313819507 0.985302648956 -0.002126192820 -0.014699843100 -0.140600272064
0.643559555000 -0.004348483382 -0.140388107408 0.986050887925 -0.005448585918 0.985437869233 -0.002557256338 -0.014724264849 -0.140447667348
0.644892666000 -0.004276002739 -0.140456979824 0.986101203632 -0.005924675816 0.985258027504 -0.002705771096 -0.014679811689 -0.140574712786
0.646225777000 -0.004291697571 -0.140508915862 0.985729379048 -0.005999005161 0.985353249480 -0.003141941836 -0.014785557426 -0.140764018376
0.647558888000 -0.004265962789 -0.140566587657 0.985869747262 -0.006538837926 0.985419967570 -0.003348069115 -0.014762861544 -0.140672955583
0.648892000000 -0.004282049731 -0.140546890481 0.985877460683 -0.006807668242 0.985309705432 -0.004097410824 -0.014779981179 -0.140812811997
0.650225111000 -0.004199573934 -0.140758143056 0.985599280498 -0.007010434196 0.985251897295 -0.004344310993 -0.014878774526 -0.140873028979
0.651558222000 -0.004317375796 -0.140799253758 0.985632301342 -0.007347271812 0.984913672011 -0.004295897349 -0.014891433137 -0.140908671273
0.652891333000 -0.004264416050 -0.140790784696 0.986496873462 -0.007546578001 0.985224300167 -0.004627164461 -0.014821027298 -0.140987856510
0.654224444000 -0.004310165053 -0.140906385574 0.985514408850 -0.007923539991 0.984850061719 -0.004558426054 -0.014754059307 -0.141133740777
0.655557555000 -0.004261186011 -0.140964305356 0.985761470439 -0.008294636769 0.985255928867 -0.004930813137 -0.014718990287 -0.141263484136
0.656890666000 -0.004184552966 -0.141169115709 0.985833953436 -0.008074568478 0.984833142771 -0.005171013909 -0.014881500844 -0.141251319323
0.658223777000 -0.004277325683 -0.141137352312 0.985978748737 -0.008821821744 0.985140697912 -0.005724009796 -0.014709643368 -0.141349458144
0.659556888000 -0.004242198187 -0.141267912819 0.985689243366 -0.009079501673 0.985323519296 -0.005981283664 -0.014855236149 -0.141406580795
0.660890000000 -0.004082776607 -0.141362041954 0.985985047397 -0.009359862599 0.985139090602 -0.006208219379 -0.014815536787 -0.141445226369
0.662223111000 -0.004165533148 -0.141424076101 0.986024967291 -0.009828979852 0.985216346760 -0.006414071947 -0.014848237351 -0.141462752536
0.663556222000 -0.004201262164 -0.141501999841 0.985416371054 -0.009882348741 0.985068649746 -0.006561733345 -0.015018794495 -0.141637350602
0.664889333000 -0.004275128760 -0.141587280243 0.985594727293 -0.010082265700 0.985121834717 -0.007013080686 -0.015045107612 -0.141823741778
0.666222444000 -0.004126620094 -0.141556567492 0.985420507969 -0.011083573679 0.985164388970 -0.007415811612 -0.015066912319 -0.141849410263
0.667555555000 -0.004265467031 -0.141829138921 0.985514398966 -0.011560000518 0.984798043925 -0.007566853123 -0.015318727779 -0.141988700015
0.668888666000 -0.004191793793 -0.141848452105 0.985521643250 -0.011341194534 0.984936841082 -0.007740847170 -0.015181134592 -0.142024625188
0.670221777000 -0.004230696510 -0.142020433260 0.985509985969 -0.011911864906 0.984863185424 -0.008505869323 -0.015313619232 -0.142174970736
0.671554888000 -0.004131101132 -0.142056167300 0.985736036642 -0.011850869624 0.984950541891 -0.008764250706 -0.015209204149 -0.142216578820
0.672888000000 -0.004167579544 -0.142243303207 0.985689096263 -0.012194982810 0.984874441795 -0.008384419653 -0.015315334407 -0.142322822747
0.674221111000 -0.004189422722 -0.142380490858 0.985708701088 -0.012781058522 0.984716797312 -0.009098715851 -0.015336445912 -0.142399699391
0.675554222000 -0.004185923659 -0.142357521930 0.985502237622 -0.012926608212 0.984651756398 -0.009037788721 -0.015283641062 -0.142384497399
0.676887333000 -0.004400796520 -0.142499932577 0.985429379205 -0.013459420784 0.984460680462 -0.009378237059 -0.015398203388 -0.142583261494
0.678220444000 -0.004182738601 -0.142526997152 0.985470850323 -0.013695655402 0.984578986789 -0.010159781278 -0.015441881426 -0.142712039420
0.679553555000 -0.004167757229 -0.142732588300 0.985383727534 -0.014172286871 0.984588739482 -0.010476220794 -0.015320485926 -0.142873713584
0.680886666000 -0.004244559032 -0.142840214751 0.985360603869 -0.014351698647 0.984610798080 -0.010609302248 -0.015386350640 -0.142987951573
0.682219777000 -0.004327284962 -0.142798626437 0.984998857915 -0.014934172636 0.984494775636 -0.010491332330 -0.015385592041 -0.143103081419
0.683552888000 -0.004281834924 -0.142974716606 0.985285524447 -0.015189849589 0.984681712850 -0.011150396620 -0.015344057980 -0.143105523635
0.684886000000 -0.004236867881 -0.143086880795 0.985245616987 -0.015199822511 0.984188972102 -0.011334321378 -0.015498098072 -0.143119626103
0.686219111000 -0.004286973095 -0.143082084672 0.985364726363 -0.015743616451 0.984129512580 -0.011793769092 -0.015540869340 -0.143165713626
0.687552222000 -0.004355980786 -0.143171204881 0.985181370942 -0.015771509042 0.984307953057 -0.011890229577 -0.015636890191 -0.143293113418
0.688885333000 -0.004334492657 -0.143403933313 0.985045792908 -0.016048763614 0.984094150784 -0.011527690761 -0.015523854477 -0.143177014497
0.690218444000 -0.004343801745 -0.143366314228 0.984668387347 -0.015965102085 0.983818557156 -0.012677621318 -0.015530973828 -0.143405414820
0.691551555000 -0.004177619826 -0.143484861645 0.984817733760 -0.016185179102 0.983662115697 -0.013022500282 -0.015730027318 -0.143586333488
0.692884666000 -0.004378891090 -0.143463104822 0.984963683294 -0.016533279036 0.983628480930 -0.012677109504 -0.015698758467 -0.143442040806
0.694217777000 -0.004458501618 -0.143695607646 0.984914952379 -0.016860309916 0.983694947118 -0.012895220540 -0.015696115695 -0.143501844612
0.695550888000 -0.004292305960 -0.143827983363 0.984764108974 -0.017078987759 0.983858539296 -0.013725411178 -0.015582659900 -0.143801837582
0.696884000000 -0.004388950468 -0.143938472064 0.984742857153 -0.017259785008 0.983973679838 -0.013683829417 -0.015727025988 -0.143786073440
0.698217111000 -0.004469785074 -0.143959962588 0.984526330416 -0.017753870466 0.983563816105 -0.014206467018 -0.015775635546 -0.143940137949
0.699550222000 -0.004528417906 -0.144080603965 0.984765077959 -0.018194994450 0.983210785002 -0.014438346085 -0.015943185580 -0.144095759750
0.700883333000 -0.004503709030 -0.144052900788 0.984551978390 -0.017864465822 0.982867891825 -0.014070783051 -0.016342802902 -0.143918911266
0.702216444000 -0.004669055790 -0.144230308930 0.983947450909 -0.018636599380 0.983083253381 -0.014783507272 -0.016253473230 -0.144247902544
0.703549555000 -0.004622570101 -0.144408250608 0.984183052757 -0.019182270096 0.983390491473 -0.015074209536 -0.016099551993 -0.144248122629
0.704882666000 -0.004851551050 -0.144581869957 0.983843271539 -0.019718072476 0.983166460512 -0.015496582850 -0.016203409930 -0.144643439935
0.706215777000 -0.004779537210 -0.144588326116 0.983669010084 -0.019443782612 0.982903125775 -0.015819668399 -0.016311087757 -0.144476029073
0.707548888000 -0.004608846840 -0.144711333004 0.984343724823 -0.019302400161 0.982746642779 -0.015991935493 -0.016268817708 -0.144561723076
0.708882000000 -0.004682063117 -0.144657490228 0.983826701227 -0.019578713778 0.982930548632 -0.015827851546 -0.016431298854 -0.144667415941
0.710215111000 -0.004778591102 -0.144768950329 0.983775686172 -0.020004554870 0.982827566539 -0.016641578597 -0.016439875875 -0.144793917450
0.711548222000 -0.004661938793 -0.144956998310 0.984257068310 -0.020275195741 0.983593828391 -0.017044989250 -0.016290681071 -0.144784036378
0.712881333000 -0.004764572899 -0.144895769355 0.984138878976 -0.020400810064 0.983234594230 -0.016631401483 -0.016538838899 -0.144759291149
0.714214444000 -0.004885071839 -0.145174249031 0.983723077893 -0.020482382504 0.982812305701 -0.017502602030 -0.016516647601 -0.145141599802
0.715547555000 -0.004867214624 -0.145170774148 0.983268257270 -0.020777938267 0.982519312018 -0.017064520330 -0.016685197560 -0.145058555467
0.716880666000 -0.004927264238 -0.145429912501 0.983940837526 -0.021355221430 0.983311295718 -0.017248130297 -0.016574987291 -0.145008142379
0.718213777000 -0.005042147437 -0.145417202963 0.982869762460 -0.021051314981 0.982580207941 -0.017373325163 -0.016965492834 -0.145137936604
0.719546888000 -0.005091920107 -0.145731075522 0.982618441690 -0.021910024607 0.982619161125 -0.017975920456 -0.016931470552 -0.145541325973
0.720880000000 -0.005061274164 -0.145562158944 0.983316942966 -0.021726178681 0.982322024133 -0.017660400740 -0.017126411396 -0.145317101042
0.722213111000 -0.005064076429 -0.145844619729 0.983257214154 -0.022380336796 0.981887470301 -0.018823258697 -0.017137503889 -0.145724413983
0.723546222000 -0.005119541700 -0.145780170775 0.983308318433 -0.022010164498 0.982818859372 -0.017850392975 -0.017330478030 -0.145325121920
0.724879333000 -0.005249158521 -0.146182363562 0.982393670740 -0.022518991963 0.981684355800 -0.019205803722 -0.017517637391 -0.145802617252
0.726212444000 -0.005232485435 -0.146048651509 0.982838384169 -0.022731545826 0.981743903677 -0.019025151386 -0.017491439859 -0.145910614400
0.727545555000 -0.005405299586 -0.146306848877 0.982682902545 -0.022995507156 0.981564918291 -0.019681036391 -0.017538812871 -0.146154766172
0.728878666000 -0.005628849851 -0.146429993903 0.982206431007 -0.023645366105 0.981851892900 -0.019704885675 -0.017527906978 -0.146171458118
0.730211777000 -0.005719303052 -0.146645431517 0.982450934458 -0.024369212081 0.981154343234 -0.020165052141 -0.017814608248 -0.146545394440
0.731544888000 -0.005841486362 -0.146613128561 0.982586603495 -0.023671005658 0.981143254060 -0.019669857477 -0.017987008997 -0.146297470610
0.732878000000 -0.005867228774 -0.146781333099 0.982293606705 -0.024024787339 0.980992592080 -0.019815013250 -0.018110397873 -0.146432923401
0.734211111000 -0.005817063480 -0.146797181682 0.982082714476 -0.023953621098 0.981071579297 -0.019670682398 -0.018155852922 -0.146377892361
0.735544222000 -0.005834129004 -0.146892350569 0.981792150288 -0.024319006232 0.981597348644 -0.020185769023 -0.018305868791 -0.146674504534
0.736877333000 -0.005952150292 -0.146903399198 0.982234972373 -0.024835827222 0.981725560304 -0.019912794879 -0.018299713496 -0.146555080208
0.738210444000 -0.006099681047 -0.147123772369 0.981146034149 -0.025042007226 0.982146346247 -0.020217497701 -0.018449583847 -0.146879690014
0.739543555000 -0.005960288934 -0.147530085374 0.982052337831 -0.026274204418 0.981195549935 -0.021876777568 -0.018145912093 -0.147174263958
0.740876666000 -0.006196308065 -0.147452616163 0.982091629543 -0.025829401033 0.980648621980 -0.020977103257 -0.018510233694 -0.147137340536
0.742209777000 -0.006109306167 -0.147493190884 0.981791065104 -0.025783151616 0.981060848186 -0.021649794379 -0.018613396661 -0.147316401356
0.743542888000 -0.006287756263 -0.147452003424 0.982257981585 -0.025415741606 0.980867591308 -0.021166573774 -0.018866766795 -0.147099617288
0.744876000000 -0.006292797694 -0.147717798534 0.980924068862 -0.026301048063 0.981026075661 -0.021374422149 -0.018928520856 -0.147420771039
0.746209111000 -0.006521982172 -0.147777054556 0.981445447414 -0.025662897897 0.980898603747 -0.021733702339 -0.019225803673 -0.147343948309
0.747542222000 -0.006584742067 -0.147856224412 0.981109799697 -0.025501002139 0.981008463859 -0.022417208002 -0.019294289891 -0.147343107331
0.748875333000 -0.006528420751 -0.148003984525 0.981351824021 -0.026904567647 0.981077514207 -0.022371967209 -0.019438875017 -0.147648057469
0.750208444000 -0.006651254197 -0.148178759032 0.981311563490 -0.026950607248 0.980663436106 -0.022516084121 -0.019476764983 -0.147821182957
0.751541555000 -0.006661719589 -0.148288902485 0.981440593173 -0.027216803282 0.980920195370 -0.022742460636 -0.019456386958 -0.147825367575
0.752874666000 -0.006862385819 -0.148373285489 0.981533728026 -0.027377755748 0.980567066667 -0.022661852465 -0.019826209785 -0.147956726158
0.754207777000 -0.006898492838 -0.148539585306 0.981306719025 -0.027325422570 0.980336614665 -0.023732826874 -0.019903260114 -0.148067207396
0.755540888000 -0.007027056772 -0.148660733618 0.980963397928 -0.027754095728 0.980641544097 -0.023503069272 -0.020036453126 -0.148218392114
0.756874000000 -0.007093111789 -0.148751526922 0.981136082350 -0.028410332079 0.979956018644 -0.023517380915 -0.020059111280 -0.148441383300
0.758207111000 -0.007073254839 -0.148780845340 0.981280056146 -0.028214891583 0.980227461028 -0.023224007493 -0.020192456751 -0.148248613450
0.759540222000 -0.007255615825 -0.148911715699 0.980977027845 -0.028133203325 0.980314518989 -0.023337363821 -0.020479779348 -0.148373660342
0.760873333000 -0.007323864731 -0.148886619755 0.981039670913 -0.028732601867 0.980359722508 -0.023532533535 -0.020530772000 -0.148563927569
0.762206444000 -0.007536068789 -0.149200293790 0.980451193497 -0.028954254509 0.979805109704 -0.023680455226 -0.020824590832 -0.148688967002
0.763539555000 -0.007640782823 -0.149155272322 0.981186034413 -0.028893194792 0.979711477322 -0.023552403444 -0.020820772166 -0.148642336024
0.764872666000 -0.007900729576 -0.149316643718 0.980489171520 -0.028592767599 0.979794626202 -0.024193158407 -0.021089976908 -0.148786286338
0.766205777000 -0.007939431476 -0.149359796923 0.980891166367 -0.028403591951 0.979828364364 -0.023917802201 -0.021158465085 -0.148740607134
0.767538888000 -0.007886042815 -0.149430006611 0.980730234872 -0.029342979029 0.979844320542 -0.024578511800 -0.021269379834 -0.149079921973
0.768872000000 -0.007908770492 -0.149587548202 0.980150774046 -0.029128562769 0.980275652222 -0.024136233608 -0.021528553073 -0.149050012615
0.770205111000 -0.008179863266 -0.149706491535 0.980361507499 -0.029504709595 0.979104213600 -0.024815052464 -0.021593553046 -0.149089950107
0.771538222000 -0.008177369551 -0.149771147287 0.980521758773 -0.030027762462 0.979619185856 -0.024750978338 -0.021872474739 -0.149214437501
0.772871333000 -0.008329875534 -0.149888675962 0.980337116104 -0.029768845911 0.979109353867 -0.024425870119 -0.021949240980 -0.149229155262
0.774204444000 -0.008444358707 -0.150094554145 0.980003692782 -0.030087176855 0.979122659573 -0.024788916472 -0.022313521078 -0.149221056452
0.775537555000 -0.008391081344 -0.150098049200 0.980384263518 -0.030520666212 0.979138661875 -0.025459453518 -0.022278308493 -0.149338433574
0.776870666000 -0.008545640816 -0.150300903242 0.980280408668 -0.030480264039 0.979110546698 -0.025976553248 -0.022476115845 -0.149415471614
0.778203777000 -0.008713869290 -0.150362087754 0.980178380413 -0.031125335184 0.979245929815 -0.025497507111 -0.022601602122 -0.149676908158
0.779536888000 -0.008989265747 -0.150542679820 0.980057232118 -0.030812730237 0.978448755603 -0.025839878780 -0.022813298953 -0.149384593939
0.780870000000 -0.008873032900 -0.150349579908 0.980343972930 -0.031016852593 0.979040986700 -0.025728344246 -0.022867279688 -0.149501654159
0.782203111000 -0.008918670357 -0.150486644959 0.980118773390 -0.031032204569 0.979061616672 -0.025513110969 -0.023063461202 -0.149662703204
0.783536222000 -0.008985478916 -0.150883190171 0.979777203594 -0.031308376267 0.978741636723 -0.026136459418 -0.023280607851 -0.149788704776
0.784869333000 -0.009155556501 -0.150816042191 0.979674391871 -0.031790434295 0.979027971120 -0.026219734661 -0.023452686810 -0.149996230189
0.786202444000 -0.009198190996 -0.150881652288 0.979657401420 -0.032020727340 0.979089272924 -0.026355710474 -0.023539748897 -0.149887237178
0.787535555000 -0.009467692553 -0.150858967471 0.979297410285 -0.031770907220 0.978758400264 -0.026512209668 -0.023895263764 -0.149875305544
0.788868666000 -0.009613190286 -0.151026277259 0.979474410983 -0.032031220233 0.978585463424 -0.026382742261 -0.023828040202 -0.149887674845
0.790201777000 -0.009721076972 -0.151144367724 0.979360202461 -0.031466484436 0.978788489141 -0.026309412702 -0.024106752973 -0.149846093689
0.791534888000 -0.009734163482 -0.151088774152 0.979185637185 -0.032203076052 0.978367954720 -0.026220549025 -0.024120388614 -0.150010962648
0.792868000000 -0.009891378306 -0.151104538666 0.979328014381 -0.031843314156 0.978441030713 -0.026682438255 -0.024290909431 -0.149751219826
0.794201111000 -0.009906811719 -0.151327076786 0.979297530586 -0.032149941562 0.978437050658 -0.027085919304 -0.024445126472 -0.150039775868
0.795534222000 -0.010227117289 -0.151611551187 0.979221492285 -0.032875371638 0.977955573917 -0.027172558404 -0.024510490396 -0.150369228206
0.796867333000 -0.010148437293 -0.151449011204 0.979088322527 -0.032650556445 0.978125870145 -0.027032285369 -0.024642279570 -0.150194977619
0.798200444000 -0.010352844709 -0.151555342053 0.978644096186 -0.032894769632 0.977894012151 -0.027280429452 -0.024897050752 -0.150217529114
0.799533555000 -0.010503717311 -0.151600135268 0.978589767541 -0.033052875909 0.978088826312 -0.027486751294 -0.025041854091 -0.150254715476
0.800866666000 -0.010546247380 -0.151871303360 0.978606973333 -0.033433916597 0.977994410538 -0.027890180596 -0.025179302919 -0.150444500004
0.802199777000 -0.010719502332 -0.151742991778 0.978380230679 -0.033637409944 0.977866956818 -0.027819185331 -0.025196211947 -0.150366802915
0.803532888000 -0.010847294531 -0.151725592299 0.978385685857 -0.033478184301 0.977941525660 -0.027796502679 -0.025341569425 -0.150465990233
0.804866000000 -0.010645677450 -0.151838824613 0.979000019349 -0.033405988189 0.977809563339 -0.027848797963 -0.025215640953 -0.150411677877
0.806199111000 -0.010882677604 -0.151998842999 0.978382218617 -0.033725855054 0.977842607722 -0.028224815988 -0.025716574461 -0.150455018827
0.807532222000 -0.010958078913 -0.151956531091 0.978678409819 -0.033702521874 0.977531323732 -0.028156470819 -0.025769787950 -0.150306589088
0.808865333000 -0.011048514358 -0.152125666985 0.978313073645 -0.033975108475 0.977727029836 -0.028289177739 -0.025795844382 -0.150541290372
0.810198444000 -0.011127561166 -0.152309089777 0.978403082699 -0.034302036552 0.977699855926 -0.028988867087 -0.025857695236 -0.150591192713
0.811531555000 -0.011087388801 -0.152321531982 0.978089061625 -0.034137331511 0.977685750454 -0.029085514224 -0.025961098960 -0.150620738766
0.812864666000 -0.011263589375 -0.152370767374 0.978327984842 -0.034251985633 0.977423231763 -0.028871612166 -0.026148314550 -0.150626731643
0.814197777000 -0.011305320784 -0.152328444066 0.978220349315 -0.034550834562 0.977445335522 -0.028656831645 -0.026226457328 -0.150548262283
0.815530888000 -0.011307317170 -0.152350751960 0.978133633721 -0.034229635492 0.977538272386 -0.029173016952 -0.026212935370 -0.150490292558
0.816864000000 -0.011665714904 -0.152406711448 0.977706493671 -0.034470127814 0.977087103458 -0.029044344767 -0.026508519694 -0.150563622514
0.818197111000 -0.011612464703 -0.152335582136 0.977790340191 -0.034263705366 0.977297711865 -0.028947903179 -0.026444485487 -0.150447135128
0.819530222000 -0.011552414597 -0.152320734663 0.978092616117 -0.034060626609 0.977394843069 -0.029120529748 -0.026571752402 -0.150476829350
0.820863333000 -0.011745805048 -0.152444933769 0.977869104659 -0.034381668168 0.977110694666 -0.029284112778 -0.026660888782 -0.150503510966
0.822196444000 -0.011517068886 -0.152389553152 0.978342142796 -0.034126180570 0.977197992201 -0.029180399033 -0.026738356895 -0.150514648129
0.823529555000 -0.011756310510 -0.152505043182 0.977852436338 -0.034504030880 0.977260701795 -0.029312821965 -0.026831502134 -0.150483129886
0.824862666000 -0.011784492791 -0.152364540815 0.978012602315 -0.033986553476 0.977391218264 -0.029311473274 -0.026890673054 -0.150217761200
0.826195777000 -0.011944889161 -0.152504849440 0.977417502028 -0.034637045995 0.977301822136 -0.029410572298 -0.027040396489 -0.150465720337
0.827528888000 -0.011616395516 -0.152622884928 0.978586559823 -0.034960427157 0.977315399851 -0.029431959136 -0.026849105398 -0.150550841138
0.828862000000 -0.011828831950 -0.152531334018 0.977842397863 -0.034923503373 0.977277461810 -0.029691757600 -0.027116520181 -0.150483326687
0.830195111000 -0.011812244285 -0.152615663590 0.978244627148 -0.034729981874 0.976910499538 -0.029872541315 -0.027226366543 -0.150420613845
0.831528222000 -0.011834464163 -0.152623985378 0.977887756668 -0.034729025709 0.977550007094 -0.029650479918 -0.027080318203 -0.150451470413
0.832861333000 -0.012009995761 -0.152324187502 0.977317343200 -0.034561018938 0.977108964411 -0.029213973316 -0.027205766516 -0.150218527599
0.834194444000 -0.011625093820 -0.152546394489 0.978403290434 -0.034701159090 0.977671499571 -0.029467806371 -0.027063004202 -0.150306076235
0.835527555000 -0.011697020840 -0.152656732915 0.977991365881 -0.035070799959 0.977665882805 -0.029927247443 -0.027212903118 -0.150639875630
0.836860666000 -0.011747880513 -0.152705491854 0.978518252957 -0.035123543283 0.977054962860 -0.030057809838 -0.027284091562 -0.150457627800
0.838193777000 -0.011742795856 -0.152600211611 0.978019652566 -0.035423365419 0.977399698653 -0.029581050795 -0.027346758232 -0.150357690976
0.839526888000 -0.012008332916 -0.152920861324 0.977423189771 -0.035990014091 0.977177497184 -0.030195468345 -0.027448010190 -0.150530289716
0.840860000000 -0.012148037955 -0.153193205815 0.977525908872 -0.036359320105 0.976573776892 -0.031033627883 -0.027864050398 -0.150735898978
0.842193111000 -0.011919106887 -0.152712264819 0.977985814217 -0.035008914616 0.977051411033 -0.030103351223 -0.027559965685 -0.150388271844
0.843526222000 -0.011844457213 -0.152923491340 0.978643176315 -0.035812352062 0.976954470154 -0.030469803777 -0.027451550366 -0.150556301271
0.844859333000 -0.011911542492 -0.153205397798 0.978366434058 -0.036110286174 0.977287952744 -0.031254921438 -0.027458425475 -0.150753114838
0.846192444000 -0.011911324711 -0.153022424717 0.978264203805 -0.036121582861 0.976783888332 -0.030888876697 -0.027550060440 -0.150730964154
0.847525555000 -0.011833440899 -0.153030591478 0.978223412933 -0.035848803989 0.977323866961 -0.030657312792 -0.027380190989 -0.150855807550
0.848858666000 -0.011839814260 -0.153048267187 0.978674626024 -0.035839245137 0.977229374441 -0.031024149489 -0.027361333831 -0.150867566737
0.850191777000 -0.012063571472 -0.153082521147 0.978452979623 -0.036024382478 0.976456719167 -0.031394303854 -0.027687095207 -0.150944621693
0.851524888000 -0.011853985015 -0.152915737650 0.978180129253 -0.036541068213 0.977332432907 -0.029954946531 -0.027465397825 -0.150907261304
0.852858000000 -0.011664552034 -0.153193271854 0.978332316375 -0.036246072028 0.977895513422 -0.031412760782 -0.027552044797 -0.151188137390
0.854191111000 -0.011706840184 -0.153175737702 0.978175067169 -0.036326614728 0.977272195416 -0.031315959826 -0.027662685772 -0.151209630868
0.855524222000 -0.011686279973 -0.152946754316 0.978408105950 -0.036083430610 0.977393421502 -0.030556652778 -0.027624512881 -0.151054095911
0.856857333000 -0.011745934703 -0.153091255602 0.978098487073 -0.036778622313 0.977170014403 -0.030834549501 -0.027913900364 -0.151316915444
0.858190444000 -0.011857221853 -0.153245021075 0.977437174467 -0.037413692241 0.977616628793 -0.030850779123 -0.027977162676 -0.151521842533
0.859523555000 -0.011530828285 -0.153142691623 0.978475733866 -0.036524236992 0.977585947961 -0.030323617304 -0.027623420267 -0.151273983960
0.860856666000 -0.011365000455 -0.153413073759 0.979133996351 -0.036831389959 0.977750655046 -0.031630243877 -0.027583385065 -0.151406684541
0.862189777000 -0.011333505676 -0.153321475210 0.978700897030 -0.037139501711 0.977856159644 -0.031327710121 -0.027704182980 -0.151609355157
0.863522888000 -0.011334156013 -0.153397427029 0.978750886889 -0.036865436023 0.977541936483 -0.031276975900 -0.027657704050 -0.151455161139
0.864856000000 -0.011155538264 -0.153536500356 0.978974081973 -0.037564042488 0.978369307164 -0.031425883174 -0.027548370421 -0.151790151170
0.866189111000 -0.011442902026 -0.153742414929 0.978379178055 -0.037636535191 0.977547379780 -0.032175976890 -0.027980876443 -0.151808575882
0.867522222000 -0.011517746387 -0.154043869342 0.978105089183 -0.038585798720 0.978065923323 -0.033369922632 -0.028132124353 -0.152123821701
0.868855333000 -0.011500731707 -0.153840771688 0.977869636923 -0.038439587186 0.976954869150 -0.032427352813 -0.028198204019 -0.151915531009
0.870188444000 -0.011083718978 -0.154057006886 0.979345924956 -0.038009549386 0.977798122170 -0.032921643407 -0.027748239431 -0.152245068715
0.871521555000 -0.011223352050 -0.153927938780 0.978218614406 -0.037967579250 0.977624903157 -0.032192616715 -0.027923407803 -0.152060976839
0.872854666000 -0.011061597318 -0.154089568354 0.978429020757 -0.038323378953 0.978452841958 -0.032694095501 -0.027906336161 -0.152323712739
0.874187777000 -0.010938991725 -0.154151251042 0.978899011189 -0.038576787355 0.978214422591 -0.032399899340 -0.027980959650 -0.152140613767
0.875520888000 -0.010846091512 -0.154260122860 0.979083756900 -0.038471894434 0.978274581774 -0.032394502189 -0.027999010700 -0.152177494483
0.876854000000 -0.010719015600 -0.154384493155 0.978899416394 -0.038382856733 0.978716119729 -0.033035988625 -0.027964351405 -0.152289701895
0.878187111000 -0.010808070162 -0.154221683883 0.978616520820 -0.038096495208 0.978123861503 -0.032394817793 -0.027903720091 -0.152061449792
0.879520222000 -0.010545204046 -0.154251458246 0.978923104579 -0.038412649718 0.978583809557 -0.032373776962 -0.027787865827 -0.152187225063
0.880853333000 -0.010634274568 -0.154450355331 0.978850785491 -0.038798531915 0.978368505433 -0.032807375535 -0.027980129342 -0.152371527815
0.882186444000 -0.010755054517 -0.154813413260 0.979164402379 -0.039226595741 0.977669604741 -0.033817100286 -0.028121882928 -0.152608835872
0.883519555000 -0.010497870881 -0.154774418041 0.979143295962 -0.039096588106 0.978475704155 -0.033422154668 -0.027847475213 -0.152601328374
0.884852666000 -0.010223455897 -0.154664464813 0.979215050270 -0.038501776704 0.978492348127 -0.033396280338 -0.027837708445 -0.152504753757
0.886185777000 -0.010167897041 -0.154827667061 0.979510361150 -0.039137337035 0.978473924707 -0.033307725133 -0.027801999584 -0.152742912033
0.887518888000 -0.010323444018 -0.155114036072 0.979774365484 -0.039803208849 0.978418759303 -0.034238198988 -0.027925099493 -0.153093718477
0.888852000000 -0.010239398442 -0.155188341866 0.979508373715 -0.039866587239 0.978501322702 -0.034249234785 -0.027851580083 -0.153068785411
0.890185111000 -0.010133035258 -0.155239773203 0.979324317384 -0.040015419520 0.978587296543 -0.034457583199 -0.027848864589 -0.153078535719
0.891518222000 -0.010093911647 -0.155490473441 0.979600467651 -0.040148223415 0.978704361417 -0.035047208859 -0.027862548506 -0.153372757749
0.892851333000 -0.009977248316 -0.155481998902 0.979653573592 -0.040370165008 0.978533808254 -0.034711076731 -0.027826583986 -0.153516539868
0.894184444000 -0.009948497853 -0.155641118222 0.979579111907 -0.040464567027 0.979008471828 -0.035211113357 -0.027751581334 -0.153475816672
0.895517555000 -0.009999814796 -0.155699023435 0.979594230488 -0.040742441555 0.978136930969 -0.035115938679 -0.027995196018 -0.153731933929
0.896850666000 -0.009827474918 -0.155977700879 0.979686935687 -0.041344574840 0.978837917436 -0.035678360229 -0.028042896850 -0.153935597474
0.898183777000 -0.009756643085 -0.156026708418 0.979739093485 -0.041121222274 0.979278608979 -0.035712683876 -0.027765836948 -0.154047010072
0.899516888000 -0.009830029034 -0.156024786634 0.979583708556 -0.041199194303 0.978617136800 -0.035314521478 -0.027900214100 -0.153959943494
0.900850000000 -0.010058086239 -0.156132741032 0.979496031824 -0.041621458400 0.979176911396 -0.035622331724 -0.028312930609 -0.154006019818
0.902183111000 -0.010028226567 -0.156264278277 0.979740996229 -0.041776913377 0.978877277593 -0.035884871779 -0.028280332598 -0.154034206082
0.903516222000 -0.009985927091 -0.156182579127 0.979717590638 -0.041890589320 0.978451192291 -0.035827403524 -0.028505387742 -0.154038141126
0.904849333000 -0.010014909069 -0.156360696079 0.979764941563 -0.041954603377 0.979163749411 -0.036560061183 -0.028450436083 -0.154306203632
0.906182444000 -0.009917661400 -0.156589197771 0.979833606522 -0.042041849821 0.978972234917 -0.037043321784 -0.028446170347 -0.154410612304
0.907515555000 -0.009756180182 -0.156590603260 0.979950196606 -0.042362038269 0.978967134757 -0.036479787688 -0.028426343082 -0.154461911300
0.908848666000 -0.009737317606 -0.156692042919 0.979956379641 -0.042537083428 0.979082207083 -0.036716399601 -0.028427531377 -0.154683882551
0.910181777000 -0.009733621236 -0.156822837080 0.979849085947 -0.042561724146 0.979769357004 -0.036810454666 -0.028411261950 -0.154698556162
0.911514888000 -0.009630459172 -0.157014493106 0.979855577426 -0.043308393767 0.979910345404 -0.037072753026 -0.028519052866 -0.154858814991
0.912848000000 -0.009819067555 -0.157152612525 0.979819942746 -0.043533489809 0.979832659394 -0.037669760932 -0.028349289015 -0.154951516905
0.914181111000 -0.009607470850 -0.157065482379 0.980013722547 -0.043451485831 0.979441447591 -0.037680676761 -0.028663788088 -0.155067506989
0.915514222000 -0.009680191089 -0.157251689189 0.979557448150 -0.043386940669 0.979441097080 -0.037718748251 -0.028724551055 -0.155039400545
0.916847333000 -0.009634920021 -0.157361450623 0.980120387463 -0.044007462802 0.979779829595 -0.038518049258 -0.028576601679 -0.155375831656
0.918180444000 -0.009605881558 -0.157416262623 0.979783955370 -0.043858180971 0.979724042189 -0.038707524159 -0.028625766457 -0.155408180886
0.919513555000 -0.009694722712 -0.157641128570 0.979730177154 -0.044324644350 0.979759687641 -0.038793731430 -0.028680116974 -0.155413729486
0.920846666000 -0.009851529744 -0.157725149540 0.980217741726 -0.044532875736 0.979385430643 -0.039592056170 -0.028730941464 -0.155784648619
0.922179777000 -0.009747073924 -0.157842358621 0.980468495214 -0.045215600218 0.979441585068 -0.039424108349 -0.028850335481 -0.155835637254
0.923512888000 -0.009735781083 -0.157790701754 0.979981460618 -0.044950014436 0.979458182740 -0.039600841011 -0.028923662166 -0.155941237755
0.924846000000 -0.009664151920 -0.158070681868 0.979998450233 -0.045509301275 0.979715915281 -0.039478900989 -0.028951486756 -0.156053026590
0.926179111000 -0.009725416877 -0.158131181726 0.979711695115 -0.045473529973 0.979739247518 -0.039786435895 -0.029078828388 -0.156094412052
0.927512222000 -0.009868874861 -0.158215561086 0.979460379740 -0.045721939019 0.979754433234 -0.040510463935 -0.029063056512 -0.156275422378
0.928845333000 -0.009708023746 -0.158253257291 0.980163305035 -0.045757678226 0.979344189734 -0.040515301780 -0.029126553746 -0.156191542092
0.930178444000 -0.009849853835 -0.158405537562 0.979712524090 -0.045648786033 0.979735712560 -0.040903669182 -0.028946683768 -0.156422625693
0.931511555000 -0.009758524262 -0.158451680120 0.979691566503 -0.045956228530 0.979554427225 -0.040792039838 -0.029105261849 -0.156487954538
0.932844666000 -0.009731065620 -0.158617760888 0.980260229718 -0.046382587459 0.980066105350 -0.041039643082 -0.029078637399 -0.156515100637
0.934177777000 -0.009756871790 -0.158638151201 0.980162167567 -0.046515357638 0.979742853565 -0.041099312157 -0.029218529965 -0.156614440678
0.935510888000 -0.009914139232 -0.158741510302 0.979517771116 -0.047421459771 0.979552461141 -0.041439879780 -0.029409512038 -0.156639255788
0.936844000000 -0.009792046748 -0.158729259721 0.980663827923 -0.046684580624 0.979884191676 -0.041429863914 -0.029324083095 -0.156799895623
0.938177111000 -0.009890600658 -0.158950558144 0.980459646309 -0.047993212276 0.979707763649 -0.041928133088 -0.029439398679 -0.157048676902
0.939510222000 -0.009798403682 -0.158954876097 0.980228808176 -0.047934530665 0.979663055234 -0.042017387280 -0.029484503336 -0.157141060069
0.940843333000 -0.009813428557 -0.159110772095 0.980231604032 -0.048407482979 0.979696605555 -0.042072754966 -0.029645312724 -0.157356935508
0.942176444000 -0.009877923748 -0.159261043328 0.980253674557 -0.048284965326 0.979614253939 -0.042861017946 -0.029763467823 -0.157468577182
0.943509555000 -0.009898531690 -0.159313279576 0.980247485310 -0.049163784468 0.979678131955 -0.043131011078 -0.029852643751 -0.157623085467
0.944842666000 -0.009880675437 -0.159421076265 0.980407442528 -0.049086521315 0.979608676114 -0.043220868657 -0.030010583774 -0.157581629423
0.946175777000 -0.009930553547 -0.159466221738 0.980085482590 -0.049192663529 0.979609463698 -0.043582659615 -0.030002477675 -0.157653865790
0.947508888000 -0.010006435934 -0.159540057685 0.979703309935 -0.049368393407 0.979444598521 -0.044260969815 -0.030151813822 -0.157714531151
0.948842000000 -0.010052238019 -0.159717644785 0.979977805941 -0.049546516617 0.979680500858 -0.044178254097 -0.030106633716 -0.157831202666
0.950175111000 -0.010010487709 -0.159726828165 0.979602614212 -0.049898957317 0.979619767169 -0.044473396814 -0.030309735640 -0.157940424889
0.951508222000 -0.010047936177 -0.159901215612 0.980422478422 -0.050059970927 0.979673951891 -0.044772850446 -0.030165486775 -0.157898222226
0.952841333000 -0.009973541205 -0.160076106353 0.979728039548 -0.050542048882 0.979902975594 -0.045144871377 -0.030287004568 -0.157956957658
0.954174444000 -0.010099979265 -0.160247945575 0.979627527460 -0.051146427959 0.979378097728 -0.045859941465 -0.030610736977 -0.158148491998
0.955507555000 -0.010135270874 -0.160165937604 0.979252026917 -0.050751062402 0.979474594783 -0.045728367970 -0.030437314253 -0.158181055274
0.956840666000 -0.010131240105 -0.160363820025 0.979756405434 -0.051103216465 0.979191620531 -0.045523261874 -0.030386961752 -0.158301582223
0.958173777000 -0.010313010155 -0.160421723677 0.978998255558 -0.051474939800 0.979156323509 -0.046319995074 -0.030531355522 -0.158541611473
0.959506888000 -0.010244140503 -0.160546510297 0.979303377647 -0.051374853817 0.979402544035 -0.046474130470 -0.030432285038 -0.158558879056
0.960840000000 -0.010195057250 -0.160588014381 0.979452350952 -0.051609801878 0.979182113413 -0.046680848953 -0.030454422942 -0.158606059748
0.962173111000 -0.010154296663 -0.160570624735 0.980327986938 -0.051232342133 0.979057284978 -0.046722357531 -0.030500308232 -0.158624434662
0.963506222000 -0.010332342106 -0.160741978980 0.979289907991 -0.051773660827 0.979000383735 -0.046857711262 -0.030590301181 -0.158648539779
0.964839333000 -0.010346553138 -0.160899272053 0.979551918237 -0.052716729760 0.978816908789 -0.046793667859 -0.030811952356 -0.158972377616
0.966172444000 -0.010383652495 -0.160883633401 0.979224477565 -0.052321971816 0.978764191167 -0.047059014040 -0.030775268947 -0.159109996838
0.967505555000 -0.010392131218 -0.161092416558 0.979502129466 -0.053240236266 0.978998357616 -0.048418917399 -0.030776436328 -0.159286002139
0.968838666000 -0.010430285955 -0.161279913981 0.979001575262 -0.053190746917 0.978889375661 -0.048601169584 -0.030685916097 -0.159439565184
0.970171777000 -0.010515530502 -0.161343424525 0.978919714124 -0.053381212131 0.978815242604 -0.048084655495 -0.030750528947 -0.159451549623
0.971504888000 -0.010507729817 -0.161452532311 0.979761246772 -0.053659515315 0.978329755526 -0.048334720635 -0.030736760315 -0.159631357996
0.972838000000 -0.010469213525 -0.161577668555 0.979000413354 -0.054389455990 0.978783110974 -0.048789106237 -0.030808034644 -0.159717078595
0.974171111000 -0.010533004198 -0.161784152917 0.978598201151 -0.054349383065 0.978899107928 -0.048896724603 -0.030817100268 -0.159962807740
0.975504222000 -0.010550798190 -0.161870453137 0.978874172910 -0.054406549031 0.978696640958 -0.049209604011 -0.030847345816 -0.160083323748
0.976837333000 -0.010551407177 -0.161914883560 0.978836177886 -0.054873605477 0.978362950095 -0.049294031052 -0.030934077577 -0.160233969246
0.978170444000 -0.010592425809 -0.161947405695 0.978910540501 -0.055488382827 0.978743369955 -0.050031842160 -0.030973655881 -0.160410167884
0.979503555000 -0.010621184959 -0.161947838204 0.978471127369 -0.055403363629 0.978138838614 -0.050243707187 -0.030994524344 -0.160446461430
0.980836666000 -0.010652088595 -0.162113648791 0.978542384740 -0.055078188549 0.978700077206 -0.050541564134 -0.031217545676 -0.160502854439
0.982169777000 -0.010716875032 -0.162258656541 0.978657331351 -0.056039510501 0.977778458378 -0.049799466590 -0.031176215045 -0.160612550099
0.983502888000 -0.010546035326 -0.162302894126 0.978952625742 -0.056046462046 0.978621459954 -0.050867531064 -0.031114175894 -0.160605543425
0.984836000000 -0.010636866436 -0.162360836348 0.978075934317 -0.056670982565 0.977796857445 -0.051021940837 -0.031281123520 -0.160852956847
0.986169111000 -0.010617795527 -0.162547949458 0.978909693710 -0.056426750708 0.977771191965 -0.051033384735 -0.031296790796 -0.160823416431
0.987502222000 -0.010641785252 -0.162589567329 0.978626708615 -0.056705903292 0.978078394800 -0.050855538026 -0.031339016373 -0.160991334933
0.988835333000 -0.010649344357 -0.162551352448 0.977625604592 -0.056474513250 0.977710192817 -0.051176908941 -0.031458978283 -0.161041580649
0.990168444000 -0.010653156565 -0.162683966504 0.978287529951 -0.057550406512 0.978279775182 -0.051802039730 -0.031364121232 -0.161346705085
0.991501555000 -0.010739236419 -0.162829322786 0.978071681672 -0.057300293605 0.977770490348 -0.052054690508 -0.031685900254 -0.161285205720
0.992834666000 -0.010774354995 -0.162940159426 0.977874803863 -0.056966433366 0.977409945756 -0.052409502554 -0.031779719534 -0.161197488314
0.994167777000 -0.010762619867 -0.162990974337 0.978274353841 -0.057478154266 0.978038124900 -0.051926269252 -0.031552994464 -0.161394721309
0.995500888000 -0.010880567651 -0.163239416576 0.977766910420 -0.057671161236 0.977585709929 -0.052552276657 -0.031700898827 -0.161374720367
0.996834000000 -0.010853768459 -0.163306344255 0.977696080215 -0.057399052563 0.977635427982 -0.052288604302 -0.031977866798 -0.161449894068
0.998167111000 -0.011008824244 -0.163442378737 0.977538623859 -0.057898959221 0.977199935320 -0.053249439656 -0.032042892269 -0.161596477099
0.999500222000 -0.010976277566 -0.163607541292 0.977937951819 -0.058238024510 0.976673820795 -0.053196569537 -0.032039289500 -0.161713345593
1.000833333000 -0.010982923528 -0.163544346614 0.977575421239 -0.057613275730 0.978758269394 -0.052429286355 -0.032179401558 -0.161760475350
1.002166444000 -0.011007407493 -0.163875063184 0.977242143698 -0.059415235948 0.977588222384 -0.053602792647 -0.032337419374 -0.161981713045
1.003499555000 -0.011058266505 -0.163991964662 0.977106106119 -0.058728759915 0.977016702654 -0.053870363878 -0.032545336535 -0.161954122243
1.004832666000 -0.011149381533 -0.164029503909 0.977052882429 -0.059355025389 0.977032998624 -0.054050877223 -0.032590330758 -0.162232494758
1.006165777000 -0.011270234354 -0.164272980994 0.977145167737 -0.059507085651 0.976596963837 -0.053982884660 -0.032552238233 -0.162171657150
1.007498888000 -0.011272348365 -0.164225273200 0.977352251891 -0.059602757275 0.976845595549 -0.054236590435 -0.032630561610 -0.162235209583
1.008832000000 -0.011357055808 -0.164448907150 0.977095138902 -0.059925698781 0.976437084564 -0.054419993880 -0.032613253162 -0.162372639428
1.010165111000 -0.011437112779 -0.164504276006 0.976865093896 -0.059926993502 0.976612132266 -0.054962928262 -0.032796265076 -0.162366044653
1.011498222000 -0.011446115612 -0.164627173971 0.977094718961 -0.060219433209 0.976238451490 -0.055081700506 -0.032843559907 -0.162375498288
1.012831333000 -0.011546126523 -0.164717111454 0.977027132265 -0.060067302997 0.976016746628 -0.055176134912 -0.032952238677 -0.162548714105
1.014164444000 -0.011793548336 -0.164787300985 0.976982447177 -0.060594590936 0.975870400654 -0.054614827751 -0.032975153744 -0.162506673047
1.015497555000 -0.011733104881 -0.165027785506 0.976858933163 -0.061244727903 0.975941434057 -0.055406155958 -0.033039082511 -0.162658710033
1.016830666000 -0.011830446603 -0.165077020151 0.976814236030 -0.061146426334 0.975689688636 -0.056139898028 -0.033228809598 -0.162828058966
1.018163777000 -0.012108567925 -0.165128289203 0.976530729095 -0.061521112932 0.975370323182 -0.055970268135 -0.033329599676 -0.162944862263
1.019496888000 -0.011915195832 -0.165239994540 0.976261041026 -0.061822724397 0.975676136474 -0.056506085025 -0.033335174158 -0.163063436300
1.020830000000 -0.012142829246 -0.165159070695 0.976509296224 -0.061845172177 0.975734855006 -0.056514646767 -0.033418407056 -0.163116346073
1.022163111000 -0.012102915455 -0.165261672782 0.976499785937 -0.061476421195 0.975588811242 -0.057015247938 -0.033641767030 -0.163153942264
1.023496222000 -0.012321218641 -0.165402291463 0.976188602111 -0.062021443040 0.974950533374 -0.057208661641 -0.033632513873 -0.163279953821
1.024829333000 -0.012434734796 -0.165408719276 0.976234794440 -0.062415837383 0.974924039496 -0.056290309457 -0.033821801806 -0.163166656949
1.026162444000 -0.012517457460 -0.165428612147 0.975699606427 -0.062154229097 0.975293478240 -0.057065971471 -0.033863389503 -0.163442120933
1.027495555000 -0.012546120997 -0.165527122307 0.975788953486 -0.062626725435 0.974804439079 -0.057059113047 -0.033995697130 -0.163543248386
1.028828666000 -0.012585778578 -0.165598062668 0.975449990095 -0.062725802206 0.975122047272 -0.057652387270 -0.034059782360 -0.163786421325
1.030161777000 -0.012819614658 -0.165834560789 0.975388729378 -0.063505194137 0.974081162826 -0.058129370379 -0.034246207485 -0.163851676071
1.031494888000 -0.012758952848 -0.165678857196 0.975120996244 -0.062419301575 0.973840579125 -0.058379339232 -0.034434156808 -0.163655083173
1.032828000000 -0.012807699884 -0.165892418706 0.975378837697 -0.063437143863 0.974109439036 -0.057871496810 -0.034298633838 -0.163831166584
1.034161111000 -0.012962532602 -0.165623403736 0.974935543863 -0.062929623209 0.974128551727 -0.057184672014 -0.034427897607 -0.163752544847
1.035494222000 -0.013106851704 -0.166001622988 0.975168948565 -0.063323859432 0.974028931858 -0.058195763106 -0.034544315289 -0.164005830407
1.036827333000 -0.012908315278 -0.166199555048 0.974761535234 -0.063637702648 0.973861992478 -0.058648202683 -0.034603057374 -0.164066817091
1.038160444000 -0.012984535778 -0.166031285652 0.974916095985 -0.063198705235 0.973612059857 -0.058001310830 -0.034812795607 -0.164113519499
1.039493555000 -0.013094286299 -0.166238491365 0.974554082893 -0.063777760641 0.973824190874 -0.058381379110 -0.035004285353 -0.164175269711
1.040826666000 -0.013130147814 -0.166404766987 0.974485436583 -0.063406943655 0.973764746098 -0.058824292637 -0.035093969855 -0.164365792971
1.042159777000 -0.013248396837 -0.166566786701 0.974799347327 -0.063554174426 0.973426321500 -0.059013285172 -0.035287500702 -0.164346252980
1.043492888000 -0.013336297814 -0.166452296373 0.974365520336 -0.063320298051 0.973532803155 -0.058728940515 -0.035335736063 -0.164091822916
1.044826000000 -0.013226903713 -0.166548667428 0.974584569131 -0.063383352309 0.973661655781 -0.058836574116 -0.035302672798 -0.164207129703
1.046159111000 -0.013360958868 -0.166730887314 0.974828101407 -0.063465726252 0.973250164151 -0.058696976870 -0.035406307098 -0.164388313325
1.047492222000 -0.013405252106 -0.166971364279 0.974702331900 -0.064256430452 0.973577772050 -0.059254891837 -0.035552972396 -0.164628350696
1.048825333000 -0.013505039937 -0.166872082615 0.974113282288 -0.063969165392 0.973077143041 -0.058779955972 -0.035784232528 -0.164543244987
1.050158444000 -0.013536649489 -0.166963375748 0.974667227330 -0.064181454308 0.973442866717 -0.058927253287 -0.035682374077 -0.164540804475
1.051491555000 -0.013780734295 -0.166992789430 0.973749999601 -0.063304266389 0.972993852718 -0.059524698010 -0.036082172720 -0.164548969651
1.052824666000 -0.013827376548 -0.167202635784 0.973752487970 -0.064079755789 0.972933210347 -0.059107423766 -0.035955599752 -0.164691764387
1.054157777000 -0.013758022750 -0.167349791709 0.973810648502 -0.063911265814 0.972728290173 -0.059807915873 -0.036376143996 -0.164712480613
1.055490888000 -0.014162001018 -0.167216705999 0.972940757316 -0.064349607495 0.972418978505 -0.059737247679 -0.036545049537 -0.164672909080
1.056824000000 -0.014101906242 -0.167563157352 0.973913189897 -0.064339110844 0.972627645918 -0.059878131684 -0.036391504746 -0.164889166112
1.058157111000 -0.014464256726 -0.167576640504 0.972829282723 -0.065690786742 0.972487568602 -0.059518888974 -0.036694027403 -0.165146827265
1.059490222000 -0.014409733350 -0.167776926678 0.973282907882 -0.065006256343 0.972075878760 -0.060083958849 -0.036888998138 -0.164986032698
1.060823333000 -0.014620380085 -0.167553730575 0.972314238930 -0.064707582515 0.972015797745 -0.060149741893 -0.037128925283 -0.164996897904
1.062156444000 -0.014578888898 -0.167796326774 0.972766675735 -0.064848626163 0.971989197454 -0.060282950242 -0.037135762845 -0.164950896346
1.063489555000 -0.014490054335 -0.167887417368 0.972760766802 -0.065242120648 0.971974153333 -0.060179674708 -0.037454641798 -0.165155789303
1.064822666000 -0.015181287749 -0.168027025207 0.971316770337 -0.066514612286 0.971720608213 -0.060603294476 -0.037854508372 -0.165220352721
1.066155777000 -0.014767035026 -0.168239503971 0.973637350707 -0.065825014595 0.971760384004 -0.060625116013 -0.037311007271 -0.165210479217
1.067488888000 -0.015049349614 -0.168141091668 0.972517127686 -0.066132926249 0.971158808577 -0.060286687578 -0.037781681273 -0.165266734583
1.068822000000 -0.015071198466 -0.168378221602 0.972935283639 -0.066243528148 0.971237237797 -0.060680698970 -0.037900899964 -0.165311705527
1.070155111000 -0.015138387987 -0.168385302302 0.972871473489 -0.066374673334 0.971264044657 -0.060692666555 -0.037991722923 -0.165370855347
1.071488222000 -0.015393390683 -0.168288221209 0.972277238954 -0.066235354556 0.970840717360 -0.060611983479 -0.038180462418 -0.165261673974
1.072821333000 -0.015372514771 -0.168479927079 0.972632068498 -0.066054546438 0.971077473992 -0.060845025520 -0.038175471125 -0.165216073492
1.074154444000 -0.015669671947 -0.168460149013 0.971686068561 -0.066756103583 0.970840980836 -0.060608478156 -0.038670713639 -0.165226629094
1.075487555000 -0.015816692938 -0.168270755034 0.970987305003 -0.066301350137 0.970366323339 -0.060704863470 -0.038802576023 -0.165300872869
1.076820666000 -0.015844591480 -0.168499112848 0.971523743760 -0.066740819634 0.970176849526 -0.060788308185 -0.038891853230 -0.165386113042
1.078153777000 -0.015729602168 -0.168475338977 0.971418677118 -0.066343113463 0.970352020638 -0.060876297351 -0.039006283569 -0.165260616250
1.079486888000 -0.016042267326 -0.168561179729 0.971457620826 -0.066699106128 0.970052973331 -0.061087341092 -0.039204852753 -0.165432503382
1.080820000000 -0.015888950094 -0.168729135824 0.971862657922 -0.066659526335 0.970549680257 -0.061048356300 -0.039071935549 -0.165544880818
1.082153111000 -0.016049601386 -0.168496966441 0.971070162495 -0.066183157223 0.970266527948 -0.060714746043 -0.039254149530 -0.165209301867
1.083486222000 -0.015976700223 -0.168678209112 0.971554605090 -0.066800163163 0.970148714788 -0.061115331242 -0.039476603718 -0.165403010318
1.084819333000 -0.016127128697 -0.168634950548 0.971262384256 -0.066403070373 0.970530140710 -0.061210530315 -0.039355931798 -0.165399121094
1.086152444000 -0.016391743067 -0.168624332008 0.970876961351 -0.066670308947 0.969973096660 -0.061086358060 -0.039519383419 -0.165450788639
1.087485555000 -0.016329003340 -0.168659130655 0.971319226173 -0.066937225415 0.969942674831 -0.060603813312 -0.039471187729 -0.165352159329
1.088818666000 -0.016363425991 -0.168676334742 0.970859220332 -0.066330097893 0.969810767736 -0.061246562427 -0.039775040640 -0.165125965201
1.090151777000 -0.016318018474 -0.169106020340 0.972230440217 -0.067129410686 0.969718939737 -0.061024431823 -0.039480913097 -0.165157313266
1.091484888000 -0.016651755916 -0.168726720230 0.970442131020 -0.066720318202 0.969662333178 -0.061102313842 -0.039929381542 -0.165137789610
1.092818000000 -0.016809654463 -0.168830074314 0.970283915900 -0.066774926231 0.969232220504 -0.061228593164 -0.040141450643 -0.165243541530
1.094151111000 -0.016514914344 -0.168896925504 0.971519634075 -0.066714196758 0.969387308049 -0.060735729548 -0.039726031382 -0.165188715531
1.095484222000 -0.016426804746 -0.168611741995 0.970680874435 -0.065406030471 0.970015660887 -0.060931264242 -0.039941042252 -0.164819951674
1.096817333000 -0.016635703765 -0.168797356752 0.970798734802 -0.066240840397 0.969726148260 -0.060989550182 -0.040047417521 -0.164974272276
1.098150444000 -0.016800749621 -0.168932411662 0.970902419592 -0.066773909955 0.968965768911 -0.060581671506 -0.040137548229 -0.165011148217
1.099483555000 -0.016888049284 -0.168924133037 0.970785079790 -0.066912860405 0.968939750046 -0.060862345252 -0.040324386387 -0.165256764775
1.100816666000 -0.017440837751 -0.169240963983 0.969998295369 -0.067411119027 0.967770365131 -0.061396390585 -0.040864095055 -0.165326406888
1.102149777000 -0.016975117128 -0.168981162599 0.970663405895 -0.066705305075 0.969071242883 -0.060719466335 -0.040325381615 -0.165301416038
1.103482888000 -0.017201467776 -0.169223467313 0.970389812125 -0.067227824297 0.969192396434 -0.061162225829 -0.040489912062 -0.165487648162
1.104816000000 -0.017307995555 -0.168836116057 0.970106851631 -0.066806687054 0.968528526433 -0.060488292685 -0.040690997234 -0.165107521582
1.106149111000 -0.017097926100 -0.169030043669 0.970199788170 -0.066767374353 0.969087382038 -0.060856898761 -0.040732496909 -0.165269160146
1.107482222000 -0.017400029829 -0.169028890008 0.969942332501 -0.066659963376 0.968902600535 -0.060720421937 -0.040651726350 -0.165207035452
1.108815333000 -0.017478983454 -0.168790659207 0.970063803883 -0.066628207613 0.968255912439 -0.060402330408 -0.040894912951 -0.165002278031
1.110148444000 -0.017393375369 -0.168884011661 0.970154737245 -0.066671784825 0.968589836874 -0.060666544879 -0.040823411490 -0.165133922508
1.111481555000 -0.017325391276 -0.168743740438 0.970230270006 -0.066822233592 0.968744887301 -0.059942164016 -0.040714611077 -0.164984389999
1.112814666000 -0.017311088247 -0.168808866605 0.970152717737 -0.066547325933 0.969059162759 -0.060411573566 -0.040707120549 -0.165078908403
1.114147777000 -0.017218983826 -0.168837286313 0.970160045080 -0.066879311890 0.968992872243 -0.060047926729 -0.040704686335 -0.165077365715
1.115480888000 -0.017736813304 -0.168931631590 0.969735273681 -0.066545554246 0.967966300430 -0.061008884506 -0.041240595896 -0.165156355547
1.116814000000 -0.017561237860 -0.168872397896 0.969780503331 -0.067113232849 0.968926391762 -0.060532605602 -0.041036893543 -0.165183368430
1.118147111000 -0.017737216205 -0.168776469085 0.969363054048 -0.067187766097 0.968270440011 -0.059923602895 -0.041339177182 -0.165042389726
1.119480222000 -0.017725311606 -0.168979230113 0.969588064142 -0.067032930310 0.968323858671 -0.060726048966 -0.041235215732 -0.165123549460
1.120813333000 -0.017271987126 -0.168305517061 0.969970189376 -0.066563408179 0.968979595518 -0.058848051381 -0.040961445795 -0.164707577008
1.122146444000 -0.017473650927 -0.168910434883 0.969866301772 -0.067003902660 0.968724167841 -0.060700049147 -0.041165172286 -0.165135613293
1.123479555000 -0.017384161242 -0.168808514270 0.969599144426 -0.066644251231 0.968936517140 -0.060324579073 -0.041140439379 -0.164785970919
1.124812666000 -0.016954852309 -0.169009792484 0.969942015142 -0.066834094543 0.969841788388 -0.060554894041 -0.040965622707 -0.164880702672
1.126145777000 -0.017382171000 -0.168937383478 0.969461535758 -0.066664741487 0.968591689252 -0.060739681443 -0.041399871689 -0.164692067394
1.127478888000 -0.017115001846 -0.168829965057 0.969707632943 -0.066936825845 0.969071442069 -0.060205183514 -0.041124697879 -0.164950117802
1.128812000000 -0.017014673286 -0.168999543291 0.969848671348 -0.067192139217 0.969470920312 -0.059967832806 -0.041045873619 -0.164911869803
1.130145111000 -0.016968481483 -0.168836104742 0.969676855493 -0.066745110032 0.969009834187 -0.059943170395 -0.041219164099 -0.164692668636
1.131478222000 -0.017185497381 -0.169223693871 0.969692871414 -0.067081583101 0.968678814604 -0.061585085402 -0.041387584001 -0.165219787902
1.132811333000 -0.016841938493 -0.169481979579 0.969531122155 -0.067193404244 0.970096297325 -0.061266958055 -0.041083813382 -0.165146362063
1.134144444000 -0.016895348694 -0.169377049244 0.969474651844 -0.067195767319 0.969556775020 -0.060839722217 -0.041219315639 -0.165063470419
1.135477555000 -0.016712943392 -0.169356872304 0.969473795646 -0.067440152950 0.969504255096 -0.060405228931 -0.041238274784 -0.164874068856
1.136810666000 -0.016417908924 -0.169439899348 0.969814646866 -0.067232117169 0.970035457094 -0.060233051062 -0.040953705123 -0.164914672895
1.138143777000 -0.016552088230 -0.169308796277 0.969517952390 -0.066874419867 0.968985034949 -0.060711559391 -0.041344667473 -0.164923811546
1.139476888000 -0.016335933575 -0.169547132930 0.969892297622 -0.067581869443 0.969616083014 -0.060537603036 -0.041065233309 -0.165235852719
1.140810000000 -0.016293004619 -0.169370851933 0.969892330589 -0.067262760442 0.969519943034 -0.060189793031 -0.041011744445 -0.165202173842
1.142143111000 -0.016194280999 -0.169960696081 0.969918392654 -0.068166221900 0.969993993147 -0.061145176896 -0.041015476187 -0.165547728099
1.143476222000 -0.016308349835 -0.170018627437 0.969877119875 -0.067910384639 0.969206139067 -0.061421158676 -0.041271582802 -0.165501865484
1.144809333000 -0.015552771558 -0.169986643567 0.970507157757 -0.067030176332 0.972009522881 -0.061222566558 -0.040430403227 -0.165409680942
1.146142444000 -0.015807981157 -0.169629563762 0.970444393675 -0.067344931538 0.969194273090 -0.059721087716 -0.040825282514 -0.165308178806
1.147475555000 -0.015592088096 -0.169672067259 0.970348924470 -0.066957796074 0.970326528120 -0.060003822235 -0.040592531714 -0.165361063400
1.148808666000 -0.015622781535 -0.170345470171 0.970671858364 -0.068666888450 0.970017353055 -0.060780998227 -0.040822788219 -0.166074390640
1.150141777000 -0.015898794629 -0.170392313896 0.969941160204 -0.068727054386 0.969496590188 -0.061319700598 -0.041096730726 -0.166047605577
1.151474888000 -0.015551897836 -0.170744827567 0.970541344617 -0.069056661037 0.969944813453 -0.061249401255 -0.040690615384 -0.166228219146
1.152808000000 -0.015614041463 -0.170849497974 0.970504760689 -0.069093371543 0.969961264276 -0.061780707583 -0.040922696660 -0.166463607975
1.154141111000 -0.015206912638 -0.170787072640 0.970714740244 -0.069379975995 0.970234991901 -0.060659328453 -0.040732923350 -0.166371332414
1.155474222000 -0.015346511454 -0.170866883207 0.970664694909 -0.069112171401 0.970476288989 -0.061143332522 -0.040713634649 -0.166440978117
1.156807333000 -0.015442552179 -0.171010536551 0.969933845928 -0.069259968739 0.970142776796 -0.061834133870 -0.040810526651 -0.166739231237
1.158140444000 -0.015211390694 -0.170775065079 0.970499226108 -0.068505274529 0.970145427698 -0.061848331063 -0.040460072646 -0.166556868847
1.159473555000 -0.014782634895 -0.171217927722 0.971097685431 -0.069417169661 0.970885390393 -0.061409960912 -0.040349746755 -0.166898117183
1.160806666000 -0.014778553271 -0.171030773053 0.971375695326 -0.068894378155 0.970467535976 -0.061860021031 -0.040205347110 -0.166940181264
1.162139777000 -0.015428339693 -0.171496877183 0.969885520308 -0.069847114667 0.970244270688 -0.062490752126 -0.040749191725 -0.167031294915
1.163472888000 -0.014734456382 -0.171624586269 0.971209915842 -0.069824484227 0.970755376266 -0.062707737889 -0.040197560136 -0.167322487749
1.164806000000 -0.014481856353 -0.171312820452 0.971145752929 -0.069640584513 0.971003273201 -0.061765068776 -0.040036808003 -0.167128756391
1.166139111000 -0.014407461887 -0.171875817798 0.971552619597 -0.070774320728 0.970906844019 -0.062249258685 -0.040113327962 -0.167527320018
1.167472222000 -0.014118371150 -0.171915796594 0.972166131099 -0.070422448005 0.971334619311 -0.062985928331 -0.039970512825 -0.167716538947
1.168805333000 -0.014501914134 -0.171978142853 0.971691713861 -0.070734446000 0.970709812783 -0.063137984232 -0.039972239130 -0.167863130069
1.170138444000 -0.014022565894 -0.171777726581 0.972131585248 -0.069951292322 0.971452838818 -0.062788712610 -0.039661026537 -0.167713618182
1.171471555000 -0.014183491423 -0.172291464375 0.971930309526 -0.071148356038 0.971478550460 -0.063640265791 -0.039785146220 -0.168041498672
1.172804666000 -0.014244692558 -0.171873409734 0.971643985400 -0.069985436347 0.971014958999 -0.063552226041 -0.039705607222 -0.167821579677
1.174137777000 -0.013957077076 -0.171770340612 0.972127147096 -0.069728842053 0.971361645173 -0.063368453865 -0.039415438932 -0.167828696933
1.175470888000 -0.013854416785 -0.172051057149 0.972038661599 -0.070139880660 0.971689216176 -0.063581407221 -0.039403030646 -0.167991269904
1.176804000000 -0.013986367042 -0.172217254257 0.971903745607 -0.070882493511 0.971520791068 -0.063731562241 -0.039562955235 -0.168055005802
1.178137111000 -0.014123936356 -0.172493200171 0.971498830228 -0.070671243593 0.971457893464 -0.064747515100 -0.039515311088 -0.168242979471
1.179470222000 -0.013645558312 -0.172219761953 0.972626980163 -0.070577059237 0.971336494222 -0.063887365064 -0.039229219913 -0.168208088017
1.180803333000 -0.013435811917 -0.172562806669 0.973274484426 -0.071242750903 0.971545061913 -0.064340051267 -0.039179469259 -0.168783100536
1.182136444000 -0.013848369860 -0.172715850235 0.971983239256 -0.071580365558 0.971114130036 -0.064532457833 -0.039664905932 -0.168783980216
1.183469555000 -0.013207617544 -0.172851100677 0.973369872927 -0.071788722580 0.972020962868 -0.064827268368 -0.039335753955 -0.169210347460
1.184802666000 -0.013506140443 -0.172930933104 0.972702590495 -0.071620887175 0.971576159394 -0.064844909394 -0.039446982837 -0.169044909697
1.186135777000 -0.013598644444 -0.173345031095 0.972261854517 -0.072427309575 0.972062243787 -0.065468743120 -0.039538701238 -0.169255156444
1.187468888000 -0.013662942422 -0.173091735596 0.972041449676 -0.071912943302 0.971615937494 -0.064906122333 -0.039681501653 -0.168943346417
1.188802000000 -0.013370023744 -0.173308096940 0.972924405627 -0.071979733802 0.971825493560 -0.065289960866 -0.039499995793 -0.169511882019
1.190135111000 -0.013596466340 -0.173491383498 0.972179744224 -0.072190577714 0.971893681174 -0.064812628746 -0.039610017387 -0.169312098493
1.191468222000 -0.013802879785 -0.173868418944 0.971819706608 -0.073170814373 0.971491314939 -0.065600972897 -0.039799066345 -0.169621574458
1.192801333000 -0.013530170976 -0.173689823894 0.972682565560 -0.072827765444 0.971825196729 -0.065754884353 -0.039564125687 -0.169783310399
1.194134444000 -0.013226737544 -0.174138199035 0.973029338379 -0.073471879268 0.972162416547 -0.065779026176 -0.039671156118 -0.170088446751
1.195467555000 -0.013196743231 -0.174115047015 0.972860281321 -0.073412101859 0.972174412497 -0.065699113702 -0.039858004944 -0.170125346120
1.196800666000 -0.013367742592 -0.174353033624 0.972633192991 -0.073472123422 0.972279059958 -0.065984345696 -0.039808521090 -0.170107398123
1.198133777000 -0.013493751201 -0.174458917760 0.972293947757 -0.073905529978 0.972183623074 -0.066350408789 -0.039940782547 -0.170393867178
1.199466888000 -0.013397324307 -0.174647640314 0.972498718177 -0.074274980200 0.972235307894 -0.066468700317 -0.040141358619 -0.170432655856
1.200800000000 -0.013460536008 -0.174921219713 0.972594556716 -0.074682479583 0.972167180335 -0.066802277664 -0.040174852598 -0.170759645505
1.202133111000 -0.013240953588 -0.174984591327 0.972462849209 -0.074733860560 0.972269898819 -0.066205785147 -0.040208564122 -0.170796982436
1.203466222000 -0.013144543465 -0.175280515656 0.972995211200 -0.075413107184 0.972528683255 -0.066678149982 -0.040294710633 -0.171069547798
1.204799333000 -0.013265389137 -0.174934767827 0.972748024990 -0.073961493540 0.972251719717 -0.066832730140 -0.040237077798 -0.170809137180
1.206132444000 -0.013175001153 -0.175342143016 0.972642934674 -0.074985636771 0.972285236278 -0.066895361160 -0.040332966500 -0.171088558085
1.207465555000 -0.013004967856 -0.175842765809 0.973139747886 -0.076374922496 0.972333662137 -0.067282887776 -0.040536577433 -0.171723024946
1.208798666000 -0.012995942497 -0.175450945433 0.973199720969 -0.074687380426 0.972520181473 -0.067332975551 -0.040466374447 -0.171488589900
1.210131777000 -0.013091530769 -0.175777992307 0.972599320942 -0.075354287184 0.972581267849 -0.067066343792 -0.040562577203 -0.171628471099
1.211464888000 -0.012967834789 -0.175756519669 0.972977648804 -0.075478085980 0.972665799851 -0.067584982758 -0.040532077902 -0.171609096756
1.212798000000 -0.013335139639 -0.176171281290 0.972655596490 -0.076124946265 0.972741986516 -0.068208473805 -0.040634459814 -0.171794405513
1.214131111000 -0.012773110257 -0.176322182893 0.973549099379 -0.076724058899 0.972758436699 -0.068742132897 -0.040876475861 -0.172307011724
1.215464222000 -0.013183238201 -0.176592392292 0.972841236415 -0.077152086801 0.972468142845 -0.068959863357 -0.040714536877 -0.172420396168
1.216797333000 -0.013217623580 -0.176663912571 0.973214864860 -0.077313969366 0.972876264969 -0.069130884143 -0.040849840097 -0.172656849158
1.218130444000 -0.013141747354 -0.176751848643 0.973052689577 -0.076984172163 0.972736587243 -0.069087298936 -0.040792771947 -0.172664514080
1.219463555000 -0.013319451026 -0.177184446762 0.972435703596 -0.078499103686 0.972326010144 -0.069391750807 -0.041288704926 -0.172980103143
1.220796666000 -0.013327102203 -0.177140126123 0.972929077027 -0.077926411234 0.972464456978 -0.070176097474 -0.041206963208 -0.173051245911
1.222129777000 -0.013158732468 -0.177251271329 0.973537862618 -0.078171200075 0.972529767272 -0.070462855838 -0.041233268592 -0.173060377451
1.223462888000 -0.013291968217 -0.177632217150 0.972431834077 -0.078138509042 0.973005617004 -0.069991008255 -0.041113174402 -0.173269268739
1.224796000000 -0.012761400859 -0.177785836181 0.973793330396 -0.079018727626 0.972810734105 -0.070276038479 -0.041222389943 -0.173562401623
1.226129111000 -0.013450183228 -0.177874077679 0.972765370431 -0.078449322964 0.973127320747 -0.071220808979 -0.041552122041 -0.173364737781
1.227462222000 -0.013069796665 -0.177626292326 0.973569144498 -0.078588862888 0.972898724993 -0.070524396687 -0.041562859705 -0.173731500892
1.228795333000 -0.013180685005 -0.177676989762 0.973456260709 -0.078297241289 0.972241243387 -0.070918600622 -0.041412443740 -0.173755222518
1.230128444000 -0.013371490057 -0.178279378006 0.973356152981 -0.079614364336 0.972645163461 -0.071766189659 -0.041547056080 -0.173851392964
1.231461555000 -0.013423665672 -0.178189359879 0.973245495668 -0.079836243170 0.972650628185 -0.071660216832 -0.041800474342 -0.174031619686
1.232794666000 -0.013337130777 -0.178548264069 0.973198100905 -0.079740032315 0.973015492360 -0.071877231287 -0.041808037165 -0.174035729132
1.234127777000 -0.013207686104 -0.178535800761 0.973787976022 -0.080354487482 0.972493497151 -0.071924624496 -0.041803147243 -0.174264584175
1.235460888000 -0.013364012899 -0.178249172120 0.973888721231 -0.080416457922 0.971852180793 -0.072327152388 -0.041772693856 -0.174510924195
1.236794000000 -0.013686678429 -0.178748900198 0.973650122720 -0.080661256500 0.972465292472 -0.072918707094 -0.041913961194 -0.174502124912
1.238127111000 -0.013574063267 -0.178974308702 0.973614452729 -0.081002359945 0.972247054543 -0.073390830782 -0.041966136029 -0.174630968155
1.239460222000 -0.013509646539 -0.178851412451 0.973703298855 -0.080993933960 0.972168732844 -0.072631898370 -0.042015709992 -0.174637410290
1.240793333000 -0.013634958609 -0.179301272562 0.973476115509 -0.081086464833 0.972659453504 -0.072536311208 -0.042130695820 -0.174589828298
1.242126444000 -0.013793385993 -0.178930447596 0.973688199407 -0.081025436262 0.972401791635 -0.073071677953 -0.042125571980 -0.174808176347
1.243459555000 -0.013755424603 -0.179186690954 0.973628394957 -0.081619007685 0.972481615733 -0.073530486232 -0.042262374154 -0.174873426819
1.244792666000 -0.014141774910 -0.179281247862 0.973778911221 -0.081636771082 0.972367587002 -0.074624536274 -0.042383053518 -0.174757790579
1.246125777000 -0.013923599561 -0.179360638666 0.974048336343 -0.081865997445 0.972511537656 -0.074037593287 -0.042321103872 -0.174957842546
1.247458888000 -0.014065811821 -0.179364824959 0.973495689753 -0.082227186814 0.972798018639 -0.074762717499 -0.042693888250 -0.175082910384
1.248792000000 -0.014055300706 -0.179510264679 0.973671077620 -0.082174384934 0.972180102314 -0.074116688435 -0.042559032847 -0.175087178979
1.250125111000 -0.014189405766 -0.179577780362 0.973877081780 -0.082910534094 0.972048679436 -0.073953484440 -0.042754140020 -0.175403275296
1.251458222000 -0.014239643645 -0.179654625116 0.973379743847 -0.082923725851 0.972774331518 -0.074492960202 -0.043020254493 -0.175195399459
1.252791333000 -0.014403721416 -0.179741921288 0.973376725079 -0.082586834642 0.972640093538 -0.075446232655 -0.043097914711 -0.175288208522
1.254124444000 -0.014494354163 -0.179819154417 0.973495595759 -0.083103969250 0.972096878211 -0.075403815744 -0.043125037374 -0.175397016455
1.255457555000 -0.014695692901 -0.179837680166 0.973738576285 -0.083827541592 0.972131016528 -0.075415012255 -0.043203289482 -0.175475547039
1.256790666000 -0.014686215050 -0.179887817813 0.973475644515 -0.083310340708 0.971880716305 -0.075924348686 -0.043286529925 -0.175473852183
1.258123777000 -0.015077001814 -0.180016127116 0.973698091605 -0.084623970879 0.971685603590 -0.076826101697 -0.043759529134 -0.175536542066
1.259456888000 -0.014925082992 -0.180046829670 0.973363935409 -0.083721351113 0.972120423866 -0.076257403308 -0.043561171533 -0.175325158904
1.260790000000 -0.015170906616 -0.180213601208 0.973538163110 -0.084690721325 0.971873793393 -0.076825188372 -0.043552607375 -0.175467664048
1.262123111000 -0.015175764625 -0.179939393470 0.973550429128 -0.084509010992 0.970787413084 -0.076315510308 -0.043790983459 -0.175505107391
1.263456222000 -0.015396883718 -0.180043981656 0.973128180934 -0.084904646294 0.970612509319 -0.077134993480 -0.044071360768 -0.175611172621
1.264789333000 -0.015383343263 -0.180374195756 0.973568427466 -0.085632043789 0.971561619378 -0.077027736023 -0.044094888835 -0.175494718552
1.266122444000 -0.015462729463 -0.180114016077 0.972475323096 -0.084585679939 0.971724561695 -0.076622924482 -0.044331807230 -0.175464968098
1.267455555000 -0.015790095193 -0.180293545899 0.973062037097 -0.084966879180 0.971639904452 -0.077277737328 -0.044423755367 -0.175588206335
1.268788666000 -0.015773711123 -0.180244531927 0.973043533498 -0.084553413127 0.972080023842 -0.077710342186 -0.044561023832 -0.175479817236
1.270121777000 -0.016072195224 -0.180333733068 0.972686906148 -0.085727509755 0.971353216631 -0.077601959416 -0.044816770931 -0.175470396076
1.271454888000 -0.016133538239 -0.180492883969 0.972790108216 -0.086238362771 0.971401386992 -0.077872337480 -0.044952486851 -0.175670429506
1.272788000000 -0.016522636738 -0.180477296345 0.972379274546 -0.086321015329 0.970611629114 -0.078853353800 -0.045250267868 -0.175575338381
1.274121111000 -0.016412047661 -0.180672626785 0.972780088920 -0.086703025322 0.971438509134 -0.078460865257 -0.045179844426 -0.175714156294
1.275454222000 -0.016571712207 -0.180545775572 0.972213186736 -0.086485376313 0.971178812378 -0.078067289267 -0.045210884745 -0.175576618119
1.276787333000 -0.016513052008 -0.180864550144 0.972910748490 -0.086638336946 0.971973874671 -0.078316323105 -0.045203013427 -0.175722445469
1.278120444000 -0.016781860815 -0.180898992988 0.972967566909 -0.087182998389 0.970715836681 -0.079056844582 -0.045592280732 -0.175643638574
1.279453555000 -0.017080333472 -0.180800187527 0.972073649809 -0.086776750313 0.970869798234 -0.079156969070 -0.045738944433 -0.175702412246
1.280786666000 -0.017096099097 -0.181088781103 0.972368178419 -0.087328628864 0.971081459527 -0.079574091567 -0.045876948985 -0.175886344180
1.282119777000 -0.017119760937 -0.180995124704 0.972186168705 -0.086717977335 0.971080091559 -0.079875604329 -0.046065171602 -0.176040744478
1.283452888000 -0.017321722215 -0.181173854875 0.972277960363 -0.088322146235 0.970319875212 -0.080108354394 -0.045996889163 -0.176153071824
1.284786000000 -0.017381893719 -0.181160258336 0.972598390744 -0.088303359475 0.970953432357 -0.080010584394 -0.046031168678 -0.176243242318
1.286119111000 -0.017547885178 -0.181142549137 0.972360940913 -0.088409007522 0.970628085218 -0.080296143556 -0.046310132798 -0.176205959098
1.287452222000 -0.017769865232 -0.181270756240 0.972662719456 -0.087807658346 0.969868051921 -0.080864326333 -0.046691991768 -0.176389042813
1.288785333000 -0.017924908553 -0.181550543839 0.971672055800 -0.090142433490 0.970523932612 -0.081406100850 -0.046817009936 -0.176660415926
1.290118444000 -0.018160144166 -0.181642900076 0.970415337027 -0.090384155413 0.970181212299 -0.081428054655 -0.047055460960 -0.176691789686
1.291451555000 -0.018164808041 -0.181510235170 0.971533461567 -0.089677664002 0.970112645374 -0.081760883303 -0.046960971817 -0.177005200865
1.292784666000 -0.017864329760 -0.181656178973 0.970939969431 -0.089641871512 0.970825741886 -0.080986144437 -0.046965314314 -0.176750059801
1.294117777000 -0.017944739502 -0.181924052418 0.971536220929 -0.089449372740 0.970227065438 -0.082407359895 -0.046928461352 -0.177038074781
1.295450888000 -0.018432957665 -0.181878539263 0.970349010431 -0.090957895748 0.969664887843 -0.082086902010 -0.047280293945 -0.177120807298
1.296784000000 -0.018180938285 -0.182088418143 0.971217704743 -0.091193912968 0.969903428884 -0.082419329620 -0.047544756986 -0.177239626990
1.298117111000 -0.018475216551 -0.182126068609 0.970320906054 -0.090735178186 0.970297457794 -0.082968607954 -0.047568901182 -0.177308272136
1.299450222000 -0.018314243880 -0.182154207174 0.971203219739 -0.091061280272 0.969866995321 -0.082124486489 -0.047377782693 -0.177286542240
1.300783333000 -0.018493963584 -0.182341648075 0.971331749907 -0.091752983692 0.969681157057 -0.083326104721 -0.047613128965 -0.177392626888
1.302116444000 -0.018510977044 -0.182121749721 0.970204434450 -0.090018252827 0.969331251827 -0.083075346682 -0.047749290433 -0.177080992793
1.303449555000 -0.018471770392 -0.182409297039 0.971883713057 -0.091806212235 0.969587546097 -0.082783794915 -0.047497312983 -0.177508473306
1.304782666000 -0.018656384843 -0.182561903609 0.970816604884 -0.092007213181 0.969242961698 -0.083418612756 -0.047822083588 -0.177578153648
1.306115777000 -0.018786625581 -0.182498150680 0.969378746778 -0.091683465622 0.969050341874 -0.082684294674 -0.047863585869 -0.177387129670
1.307448888000 -0.019121383069 -0.182438634066 0.969125757059 -0.091553667678 0.968506209835 -0.083288318964 -0.047920233171 -0.177289525124
1.308782000000 -0.018955897444 -0.182563804212 0.969048597467 -0.091895084866 0.969105735772 -0.083422000563 -0.048097274090 -0.177376725332
1.310115111000 -0.018765978379 -0.182621903555 0.969240957137 -0.093018985085 0.970456759556 -0.083262043894 -0.047782977439 -0.177519215391
1.311448222000 -0.018895820370 -0.182604835333 0.968959088349 -0.091587763151 0.969469880513 -0.083362701897 -0.048165859345 -0.177348348201
1.312781333000 -0.019114381032 -0.182762789285 0.969141424658 -0.093726418749 0.968609152512 -0.083529312350 -0.048359086792 -0.177534843922
1.314114444000 -0.019089604464 -0.182908213092 0.968669743143 -0.093518412660 0.969067244746 -0.083617125132 -0.048453699241 -0.177478697635
1.315447555000 -0.019026459439 -0.182754292401 0.969030561004 -0.092676117070 0.968897386573 -0.084075236864 -0.048391296878 -0.177397955592
1.316780666000 -0.019423807164 -0.183045277221 0.968244765556 -0.093713014111 0.967972948917 -0.084054535978 -0.048772563040 -0.177520777706
1.318113777000 -0.019433585267 -0.183002772412 0.968909456011 -0.094273964836 0.968222817235 -0.084195211303 -0.048623839776 -0.177504609369
1.319446888000 -0.019313689883 -0.183109101022 0.969250823361 -0.094852809262 0.969000682283 -0.083749194133 -0.048486531474 -0.177352122242
1.320780000000 -0.019383675039 -0.182874664947 0.967667506328 -0.093905018791 0.968513559255 -0.084402255128 -0.048985808259 -0.177377932537
1.322113111000 -0.019303062807 -0.182910433977 0.968488034603 -0.093780174028 0.968892309169 -0.083898105759 -0.048789410163 -0.177305943833
1.323446222000 -0.019740868966 -0.183130853618 0.968888935976 -0.093636760406 0.967905451608 -0.084089131683 -0.048786955041 -0.177506778914
1.324779333000 -0.019592627035 -0.183111298241 0.968400646837 -0.094659301427 0.968255763987 -0.084870277493 -0.049083937126 -0.177751933985
1.326112444000 -0.019735940678 -0.183163522357 0.967965338384 -0.093918301896 0.968065450908 -0.084754181719 -0.049168979432 -0.177349797760
1.327445555000 -0.019669734177 -0.183172201035 0.967961018181 -0.093408091003 0.968493659794 -0.085173819626 -0.049110799441 -0.177334849189
1.328778666000 -0.019927036042 -0.183211136989 0.967771157516 -0.093909242473 0.967584196571 -0.085124595942 -0.049421498995 -0.177521001306
1.330111777000 -0.020187144073 -0.183299724668 0.967677820072 -0.094813134582 0.967327255316 -0.085136154340 -0.049531818428 -0.177607725013
1.331444888000 -0.020095463890 -0.183347442714 0.967974553919 -0.094159036714 0.967455937395 -0.085116000430 -0.049653414153 -0.177418314520
1.332778000000 -0.020162423112 -0.183156906358 0.967172739608 -0.094688420270 0.967542921601 -0.084865660924 -0.049864674317 -0.177420149773
1.334111111000 -0.020227807693 -0.183076110413 0.966995549476 -0.094020085190 0.967106177283 -0.084699361879 -0.049936489984 -0.177393192730
1.335444222000 -0.020432284930 -0.183179798183 0.967091205160 -0.093774731185 0.966629810081 -0.085098163332 -0.050050950023 -0.177302631922
1.336777333000 -0.020630321840 -0.183038859558 0.966815864598 -0.094748866623 0.966644985628 -0.085144697124 -0.050171123179 -0.177514219673
1.338110444000 -0.020707156923 -0.183234102312 0.966903706109 -0.094423108246 0.966269188966 -0.084956964557 -0.050520145314 -0.177418163894
1.339443555000 -0.020829959321 -0.183230255094 0.966779441059 -0.094574130052 0.966251185150 -0.085054722661 -0.050542438960 -0.177365701133
1.340776666000 -0.020793056784 -0.183187706404 0.966445973182 -0.094835876297 0.966221815770 -0.085027245586 -0.050669055354 -0.177479786185
1.342109777000 -0.020847174442 -0.183134277712 0.966213759939 -0.094247130967 0.965945643684 -0.084938126139 -0.050764778228 -0.177219651072
1.343442888000 -0.020899700692 -0.183123994220 0.966377131208 -0.094300694828 0.966040432710 -0.085114774855 -0.050736231954 -0.177310272795
1.344776000000 -0.021159800263 -0.183242541537 0.966373400701 -0.094463458331 0.965494523333 -0.085219711747 -0.050931714660 -0.177305424890
1.346109111000 -0.021121470903 -0.182973999204 0.966113649932 -0.093745511286 0.965480320681 -0.084591078505 -0.051049961882 -0.177069276781
1.347442222000 -0.021294512960 -0.183155318228 0.965855914642 -0.093977234075 0.965355295065 -0.085062927261 -0.051276989242 -0.177229257117
1.348775333000 -0.021347151168 -0.183028738694 0.965412522158 -0.094000973646 0.965070779124 -0.084906045835 -0.051561593067 -0.177169511290
1.350108444000 -0.021650480459 -0.183201841348 0.965077287193 -0.094408872311 0.965018897868 -0.084942099465 -0.051694741639 -0.177289759686
1.351441555000 -0.021630397204 -0.183048758279 0.965077535965 -0.094408778244 0.964755763422 -0.084967552370 -0.051734809585 -0.177291921022
1.352774666000 -0.021592044842 -0.182906769316 0.965136064728 -0.093949155075 0.964698607588 -0.085036636046 -0.051769960269 -0.177236640890
1.354107777000 -0.021676207333 -0.182958726497 0.965110562626 -0.093900901568 0.964636276700 -0.084720824041 -0.051807682900 -0.177026678945
1.355440888000 -0.021855847687 -0.183031727388 0.964821981785 -0.094037117917 0.964136244103 -0.084827769130 -0.052083002587 -0.177015023514
1.356774000000 -0.021844859086 -0.182879892690 0.964709063778 -0.093855562361 0.964263296707 -0.084274068149 -0.052134349045 -0.177080076569
1.358107111000 -0.022011826034 -0.182859389091 0.964433918550 -0.093511976799 0.964062316557 -0.084726719047 -0.052278562778 -0.177044414158
1.359440222000 -0.022001408556 -0.182863559857 0.964691317572 -0.093634250795 0.963707532091 -0.084832176227 -0.052271309192 -0.176979077625
1.360773333000 -0.022143911515 -0.183036055563 0.964613930621 -0.093705978982 0.963628291912 -0.084773662215 -0.052371093519 -0.176922539457
1.362106444000 -0.022255423210 -0.182808256251 0.964250184916 -0.093450434622 0.963705507398 -0.084533393921 -0.052465696655 -0.176804866566
1.363439555000 -0.022487357071 -0.182880510312 0.964171992158 -0.093233947799 0.963024597205 -0.084948504310 -0.052716736248 -0.176871252125
1.364772666000 -0.022418260565 -0.182894403179 0.964130564626 -0.093350905078 0.963219402189 -0.084983438656 -0.052754434338 -0.176901657338
1.366105777000 -0.022394408801 -0.182916033952 0.963989295762 -0.093434975266 0.963197652324 -0.084867927929 -0.052820895998 -0.177005052347
1.367438888000 -0.022638779435 -0.182900360191 0.963701867755 -0.093046828317 0.962777958762 -0.085221463938 -0.052964023650 -0.176838986670
1.368772000000 -0.022613619400 -0.183063972820 0.964042109747 -0.094185095948 0.963026349480 -0.084467380204 -0.052869428434 -0.176935876495
1.370105111000 -0.022558008365 -0.182911289158 0.963935857065 -0.093639405095 0.963034855516 -0.084411606903 -0.052915614359 -0.176850049764
1.371438222000 -0.022901711908 -0.183129229600 0.963428901765 -0.093644711293 0.962565327650 -0.085523071871 -0.053034439162 -0.177039818909
1.372771333000 -0.022939906740 -0.183213510470 0.963493952083 -0.094031905512 0.962289360900 -0.085388834213 -0.052992552667 -0.177073682535
1.374104444000 -0.022964748701 -0.182969964595 0.963310241437 -0.093469776426 0.962314364680 -0.084818550334 -0.053034240873 -0.176890867203
1.375437555000 -0.022797399520 -0.183091173403 0.963722704652 -0.093749170199 0.962693801742 -0.084949671996 -0.052928953486 -0.177037923098
1.376770666000 -0.023142920003 -0.183184867877 0.963342124165 -0.093897960413 0.961530763451 -0.085511353421 -0.053268261794 -0.177103983143
1.378103777000 -0.022957670413 -0.183194599532 0.963045100692 -0.093721199706 0.962642111904 -0.084983108968 -0.052908529968 -0.177022167852
1.379436888000 -0.023259133313 -0.183351963385 0.963296961250 -0.094513911693 0.961062303640 -0.085489616229 -0.053291052847 -0.177293146882
1.380770000000 -0.023426636205 -0.183376144260 0.962532846636 -0.094643536466 0.961331458733 -0.085398157429 -0.053449987310 -0.177180545543
1.382103111000 -0.022702441294 -0.183442635591 0.964151227119 -0.094792714088 0.962217580175 -0.084669639079 -0.052634292920 -0.177337256588
1.383436222000 -0.023042083884 -0.183514675215 0.963625339802 -0.094227370086 0.961617205896 -0.085622404204 -0.052865465789 -0.177193967080
1.384769333000 -0.022891886140 -0.183324243016 0.963774703951 -0.093675560178 0.961540881777 -0.085437924804 -0.052872994261 -0.177209278078
1.386102444000 -0.022851919075 -0.183418684034 0.963415555443 -0.093532804231 0.961829611175 -0.086175514186 -0.052795012273 -0.177169280577
1.387435555000 -0.022924789785 -0.183219929750 0.962443809492 -0.093800732308 0.962043338459 -0.085433100752 -0.053135213970 -0.177012969724
1.388768666000 -0.023252117581 -0.183331233513 0.962719271637 -0.094321814279 0.960887028360 -0.085051978435 -0.053024620770 -0.177149087452
1.390101777000 -0.022999371734 -0.183268850536 0.962623014329 -0.094160748951 0.961167200484 -0.085279984696 -0.052954412673 -0.177093157489
1.391434888000 -0.023181968954 -0.183335086477 0.962529229785 -0.093653167014 0.960626408788 -0.086148960359 -0.053063073385 -0.177019106772
1.392768000000 -0.023070694665 -0.183608002864 0.962668500962 -0.095241045235 0.961021069948 -0.085105252149 -0.052895665425 -0.177308894948
1.394101111000 -0.022741607066 -0.183366821900 0.963305450864 -0.093819324848 0.961331741102 -0.085623022565 -0.052630637180 -0.176969703567
1.395434222000 -0.022868661054 -0.183540165838 0.962911393240 -0.094841498292 0.961211595574 -0.084903103052 -0.052828977340 -0.177077409294
1.396767333000 -0.022865231892 -0.183594261540 0.962408520035 -0.094507232410 0.961229784541 -0.085525633965 -0.052913349128 -0.177019483304
1.398100444000 -0.022622417863 -0.183212162235 0.961504301985 -0.094661458586 0.962654884333 -0.084274187124 -0.052646210623 -0.176961634723
1.399433555000 -0.022864295687 -0.183864943978 0.962600311290 -0.095106867678 0.960916879263 -0.085827522386 -0.052569141137 -0.177093006593
1.400766666000 -0.022133926765 -0.183712500054 0.963506872741 -0.095034876982 0.961711074736 -0.084832076878 -0.052359689829 -0.177097779109
1.402099777000 -0.022370878269 -0.183796600356 0.963003377899 -0.094416909381 0.961645410937 -0.085781682970 -0.052532371350 -0.176930958145
1.403432888000 -0.022394667314 -0.183967168697 0.962842773000 -0.094870032005 0.961531912571 -0.086038929022 -0.052797252840 -0.177156774020
1.404766000000 -0.022325262553 -0.183710722067 0.962398169373 -0.094404738147 0.961495189941 -0.085625648661 -0.052605911074 -0.176874752543
1.406099111000 -0.022278199393 -0.183870457073 0.962890235232 -0.094981888227 0.961432178816 -0.085687754655 -0.052395492281 -0.176976947836
1.407432222000 -0.022091796576 -0.183821491446 0.962449871686 -0.094409468784 0.962085637378 -0.086158223100 -0.052291878629 -0.176977200171
1.408765333000 -0.021844637947 -0.183572363848 0.963092279602 -0.094542610565 0.961865241046 -0.085100589224 -0.052111101642 -0.176890112489
1.410098444000 -0.022088822700 -0.183423311278 0.962584015982 -0.094673861996 0.960931684936 -0.085440369965 -0.052502100144 -0.176836605013
1.411431555000 -0.021417525361 -0.183941994704 0.963297815311 -0.095007443157 0.962473170073 -0.085767391399 -0.052064401070 -0.177227943602
1.412764666000 -0.021802358730 -0.183886482645 0.961900405556 -0.095002359834 0.962646224300 -0.086153886634 -0.052159219614 -0.177064603282
1.414097777000 -0.021452480512 -0.184250948395 0.963066910744 -0.096035365266 0.962542261808 -0.086292242390 -0.052051328234 -0.177592559577
1.415430888000 -0.021235031565 -0.183566147965 0.963071202244 -0.094335065135 0.962690117382 -0.085856229237 -0.051781114447 -0.177013586077
1.416764000000 -0.021483050109 -0.183903126423 0.962511162339 -0.095015864629 0.962850294792 -0.086799279362 -0.052134160844 -0.177434262530
1.418097111000 -0.021057056096 -0.183328204313 0.962821839461 -0.094219689475 0.962556923142 -0.085707462000 -0.051729348569 -0.177023305952
1.419430222000 -0.021006645075 -0.183640523584 0.963272271146 -0.095343564230 0.962443596491 -0.086060613319 -0.051700999301 -0.177477454206
1.420763333000 -0.020634343046 -0.183336206038 0.963081737026 -0.094884343288 0.962924629644 -0.085058513391 -0.051388041930 -0.176891652309
1.422096444000 -0.020329807201 -0.183077863893 0.963529538178 -0.094830284327 0.963207860565 -0.084219620782 -0.051208959766 -0.176627232799
1.423429555000 -0.020010299770 -0.183333165262 0.963660553829 -0.094836023761 0.963786103245 -0.084869724360 -0.050772383535 -0.177136256657
1.424762666000 -0.020010068070 -0.183342157423 0.963948189062 -0.094565702698 0.963827269157 -0.085356580847 -0.050634925492 -0.177206803109
1.426095777000 -0.020075472461 -0.183398736915 0.963451302024 -0.094993340534 0.964140716159 -0.085477726197 -0.050751804136 -0.177230142004
1.427428888000 -0.019776872078 -0.183653682003 0.964089493502 -0.095131565749 0.963908926358 -0.085896456054 -0.050669628332 -0.177626891423
1.428762000000 -0.019591969571 -0.182561163858 0.963560370942 -0.093749365933 0.963912370116 -0.084687286391 -0.050422748852 -0.176824880297
1.430095111000 -0.019367561509 -0.183242585779 0.964238554355 -0.094885125169 0.964553300940 -0.084997633260 -0.049962217621 -0.177527549612
1.431428222000 -0.019420786035 -0.183370076605 0.964134664982 -0.095052660757 0.963912626684 -0.085082961463 -0.050273243024 -0.177541012440
1.432761333000 -0.019124075423 -0.183209369130 0.964234493311 -0.094954320829 0.964059427389 -0.084751035115 -0.050262708880 -0.177565632019
1.434094444000 -0.019028062242 -0.183219764672 0.964220019650 -0.094355284195 0.964291708959 -0.085962556930 -0.050050845258 -0.178115096180
1.435427555000 -0.018624871423 -0.183469197069 0.964587499506 -0.094541240923 0.965264212036 -0.085519538575 -0.049349414924 -0.178030343801
1.436760666000 -0.019459814991 -0.183621844652 0.963806755616 -0.095318422124 0.963483859850 -0.085814746413 -0.050435421409 -0.178011246632
1.438093777000 -0.018600661335 -0.183823410924 0.964295137715 -0.095169528394 0.964341594909 -0.086091172627 -0.049974145328 -0.178505295908
1.439426888000 -0.018107919815 -0.184512899706 0.965201512116 -0.095882716650 0.964826277826 -0.086434702748 -0.049614811203 -0.179028661814
1.440760000000 -0.018280707125 -0.184094166564 0.964963899484 -0.094957348194 0.964796735932 -0.086318356920 -0.049352268608 -0.178769011559
1.442093111000 -0.018133884978 -0.184359403164 0.964996846473 -0.095433323411 0.964858389649 -0.085863573167 -0.049270702792 -0.178469917382
1.443426222000 -0.018711201809 -0.184141593295 0.964233561789 -0.095168907354 0.963942252775 -0.086955837442 -0.049941415974 -0.179089711632
1.444759333000 -0.017850310986 -0.184640809410 0.965378227211 -0.095163880754 0.965134988022 -0.086699814376 -0.048771187287 -0.178913429886
1.446092444000 -0.018909035609 -0.184491469541 0.964234112027 -0.095683605511 0.963506328677 -0.085300493832 -0.050117232923 -0.177991122098
1.447425555000 -0.017260915299 -0.184891585272 0.965811003323 -0.095238019085 0.965344913769 -0.087744919959 -0.048668590442 -0.179596716241
1.448758666000 -0.017337581966 -0.184842884461 0.965847085237 -0.095458132723 0.965097832057 -0.087522521345 -0.048534696844 -0.179860529169
1.450091777000 -0.017171488827 -0.185762236963 0.965822284113 -0.096396660874 0.964462374117 -0.087689042739 -0.049146108436 -0.179959968263
1.451424888000 -0.017321675914 -0.185866395537 0.966105889892 -0.096287114261 0.964856954686 -0.087990812846 -0.048416412259 -0.180319744006
1.452758000000 -0.016700666936 -0.186122311342 0.966657237693 -0.096471402914 0.965973618045 -0.087662142904 -0.047176186339 -0.179837028797
1.454091111000 -0.017497609433 -0.186119384782 0.966063660072 -0.096533498576 0.965233925998 -0.087702189326 -0.047903010806 -0.179697928020
1.455424222000 -0.017002562496 -0.186280301303 0.966250087925 -0.096744046132 0.965453283708 -0.087916881183 -0.047797222874 -0.180183849841
1.456757333000 -0.016751501335 -0.186870636566 0.966437470301 -0.097034614646 0.965588439224 -0.088875479471 -0.047828234537 -0.180780851499
1.458090444000 -0.016026148218 -0.186388230672 0.967213823851 -0.096653530444 0.965656856121 -0.088229266065 -0.047667762350 -0.180362929113
1.459423555000 -0.016430178525 -0.186399870649 0.966845678420 -0.096650224069 0.965049702099 -0.087887906352 -0.048192914848 -0.179956761236
1.460756666000 -0.016564463651 -0.186804495006 0.966781341690 -0.097054010973 0.965329517555 -0.088416138342 -0.047878546599 -0.180501645399
1.462089777000 -0.016365909080 -0.187032629675 0.967038733632 -0.097285427978 0.964967585856 -0.088529813045 -0.047917624261 -0.180760641091
1.463422888000 -0.016008251778 -0.186963639568 0.967182984050 -0.097453924792 0.965701583893 -0.088418918552 -0.047194393634 -0.180638813429
1.464756000000 -0.016262834774 -0.186688942368 0.967367190592 -0.097829122237 0.965227762389 -0.088815680280 -0.047512152233 -0.181532362275
1.466089111000 -0.016497824138 -0.187984762125 0.967003988415 -0.097932890034 0.965468129561 -0.089370609309 -0.047016927137 -0.181649934871
1.467422222000 -0.016196833067 -0.187911164330 0.967326930946 -0.098117007244 0.965782660593 -0.089645542070 -0.046601146449 -0.181574639069
1.468755333000 -0.015436602724 -0.187351290935 0.968046367436 -0.097951443050 0.966339523746 -0.088772507075 -0.046748705925 -0.180591594298
1.470088444000 -0.016165543457 -0.188484400741 0.967790451145 -0.098628693119 0.965915980459 -0.089931149499 -0.046776492908 -0.181301830157
1.471421555000 -0.015324834207 -0.188865194049 0.967645111545 -0.099244865961 0.965834741974 -0.090045184678 -0.046891352917 -0.181961740602
1.472754666000 -0.015326610575 -0.188129690631 0.968161928797 -0.099307862574 0.966068059722 -0.090115390364 -0.046813815821 -0.182352775052
1.474087777000 -0.015468989755 -0.188871899929 0.967424030524 -0.099283904788 0.965814763506 -0.090287294943 -0.046590219335 -0.182868347964
1.475420888000 -0.015593373375 -0.189467878965 0.967714151686 -0.100440814861 0.966251136106 -0.091158430094 -0.045900174376 -0.182845128760
1.476754000000 -0.015279324312 -0.189431047383 0.967933391120 -0.100011932920 0.966245256615 -0.090763088403 -0.046319797407 -0.182093527520
1.478087111000 -0.015052712985 -0.189494837480 0.968076850877 -0.099765743167 0.966366595677 -0.090998182189 -0.047255589427 -0.182458273198
1.479420222000 -0.015121002390 -0.189289454338 0.967882264749 -0.100462172974 0.966127914711 -0.091141969254 -0.046552765480 -0.183217870396
1.480753333000 -0.015053337160 -0.189865180402 0.967924437701 -0.100908349512 0.965964053374 -0.091412020788 -0.046795377215 -0.183338782224
1.482086444000 -0.014792965662 -0.189498777449 0.968339924043 -0.100597433410 0.966499764061 -0.091524449421 -0.046678211131 -0.183491662853
1.483419555000 -0.014943800238 -0.190079519308 0.968028184500 -0.100839385132 0.966189877361 -0.091518969888 -0.046436518776 -0.183708115194
1.484752666000 -0.015015757174 -0.190117500980 0.968453388857 -0.101035553731 0.966035476212 -0.091487168759 -0.046483487322 -0.183603228931
1.486085777000 -0.015026966195 -0.190693685529 0.968146096006 -0.101788231200 0.966047763808 -0.092114977603 -0.047085995186 -0.184041557988
1.487418888000 -0.014938193690 -0.190608802708 0.968651952638 -0.102091938915 0.966288778974 -0.092508137976 -0.047347430687 -0.184340042074
1.488752000000 -0.015184357279 -0.190972258794 0.967964147064 -0.101598528875 0.966225802375 -0.092340895755 -0.047391882323 -0.184430588081
1.490085111000 -0.014614709423 -0.190861540735 0.968778386058 -0.102437109028 0.966477119580 -0.092620275399 -0.047105274656 -0.184557167146
1.491418222000 -0.014807971668 -0.191062245872 0.968685767587 -0.102572594020 0.966450502462 -0.093032648780 -0.047574881684 -0.184635833821
1.492751333000 -0.014100800075 -0.191125560667 0.968313187106 -0.103363410101 0.966638671755 -0.092854766157 -0.047588686156 -0.185133320526
1.494084444000 -0.014240041366 -0.190498004804 0.968587667381 -0.103844966402 0.966658081014 -0.092491790816 -0.047270817091 -0.184968380344
1.495417555000 -0.014398477328 -0.191918691377 0.967669149079 -0.102430863178 0.966037799466 -0.092924410861 -0.046906855968 -0.184660585479
1.496750666000 -0.014542371021 -0.191919812413 0.967948787183 -0.103439569654 0.966772408653 -0.093815629023 -0.047475232214 -0.185367836250
1.498083777000 -0.014445956795 -0.191344306162 0.968703429474 -0.103322718685 0.966770502253 -0.093159208316 -0.047594234700 -0.185380876214
1.499416888000 -0.014301556187 -0.191849068384 0.968685035304 -0.103591644337 0.966764717387 -0.093928673282 -0.047170907398 -0.185782767657
1.500750000000 -0.014246842485 -0.191394614324 0.967948295001 -0.105362471048 0.966178964859 -0.094088648468 -0.047897747285 -0.185127044143
1.502083111000 -0.014267143269 -0.192157994443 0.968684661575 -0.104588031769 0.966431773012 -0.093640249172 -0.047378047343 -0.185837585228
1.503416222000 -0.014614532282 -0.192245642245 0.969067450006 -0.103861510054 0.966527345837 -0.093898199885 -0.047247338656 -0.185975819391
1.504749333000 -0.014416164486 -0.192261168510 0.969081238088 -0.104488888202 0.966418110901 -0.093669687536 -0.047214215679 -0.186296618405
1.506082444000 -0.014515003269 -0.192406751445 0.968716492653 -0.105097061746 0.966497270478 -0.094044893295 -0.047601857117 -0.186305313899
1.507415555000 -0.014945134462 -0.192713507846 0.969649975207 -0.105183762139 0.966919327007 -0.094698027225 -0.047487534269 -0.186787453420
1.508748666000 -0.014513290423 -0.192871302310 0.969149299826 -0.105332927814 0.966942183269 -0.094474275409 -0.047363566137 -0.187030953915
1.510081777000 -0.015058183310 -0.193039427040 0.969556586005 -0.104412471336 0.966427214947 -0.095360233764 -0.047567638294 -0.186998191825
1.511414888000 -0.014606968150 -0.193090352216 0.968990387844 -0.106130846851 0.966754166241 -0.095173450593 -0.047773325123 -0.187078236738
1.512748000000 -0.014794940570 -0.193124655211 0.968768782800 -0.106050564947 0.966800186947 -0.095707691915 -0.047899380896 -0.187189729808
1.514081111000 -0.014086926955 -0.193345332297 0.967806049240 -0.105270496754 0.966987085511 -0.094592678933 -0.047667980832 -0.186875144615
1.515414222000 -0.014797283222 -0.193520203641 0.969156052874 -0.105984891945 0.966989228389 -0.095566362363 -0.047745793420 -0.187401168149
1.516747333000 -0.015118715642 -0.193761410017 0.969306359951 -0.106628716834 0.967040282213 -0.095966484677 -0.048168550314 -0.187680579932
1.518080444000 -0.015024419996 -0.193809606918 0.969618994568 -0.107136063074 0.966743365755 -0.096161104059 -0.048313638860 -0.187762521208
1.519413555000 -0.015321211547 -0.194182412046 0.969196865986 -0.106273320482 0.966843295218 -0.096656800651 -0.048269400375 -0.187873962965
1.520746666000 -0.015082536494 -0.194249239387 0.969055739012 -0.107040706541 0.967315296443 -0.096605674676 -0.047938374213 -0.188083527357
1.522079777000 -0.015129584176 -0.193991591895 0.969191617354 -0.107494422969 0.966261393776 -0.096133873167 -0.048550616575 -0.187959629201
1.523412888000 -0.015171752469 -0.194074004725 0.969125075728 -0.107696315886 0.967091334056 -0.096541305708 -0.048624836412 -0.188277294915
1.524746000000 -0.015335612699 -0.194346952467 0.969262398826 -0.107352168578 0.967004598965 -0.096762685056 -0.048386861315 -0.188289052432
1.526079111000 -0.015457451601 -0.194332715590 0.969899676405 -0.108751507412 0.966227772185 -0.097284033933 -0.049319013385 -0.188632533131
1.527412222000 -0.015471272392 -0.194831508378 0.969732864469 -0.108006629188 0.967305449878 -0.097542227550 -0.048579053378 -0.188763510119
1.528745333000 -0.015245533938 -0.194809043747 0.969816463381 -0.107901185733 0.966957740593 -0.096991405491 -0.048680617689 -0.188683728165
1.530078444000 -0.015233250587 -0.194918821741 0.968503647331 -0.107683553085 0.967398011338 -0.097810990248 -0.048652702924 -0.188501214132
1.531411555000 -0.015501483303 -0.195230067908 0.969526026958 -0.108003601106 0.967056420895 -0.098161105344 -0.048808290003 -0.188832648339
1.532744666000 -0.015698515152 -0.195452532341 0.968826060685 -0.108637981435 0.967796634360 -0.098371983834 -0.048920385575 -0.188815410844
1.534077777000 -0.015508720466 -0.195446855980 0.969907516351 -0.107988311241 0.966437943690 -0.098353806905 -0.048998639950 -0.188657841377
1.535410888000 -0.015821787994 -0.195669798446 0.969774855249 -0.108144220441 0.966699380574 -0.099277489032 -0.049430476374 -0.189016033759
1.536744000000 -0.015818386443 -0.195458016755 0.970598115522 -0.109182318493 0.966784296818 -0.098389012549 -0.049512789049 -0.188965290620
1.538077111000 -0.015963270780 -0.195668094563 0.969054430329 -0.109804544857 0.967967345608 -0.098955616940 -0.049327174603 -0.188902241622
1.539410222000 -0.016180714521 -0.195619181344 0.969528549998 -0.110149844332 0.967204241501 -0.099325478094 -0.049896059882 -0.189036892681
1.540743333000 -0.016332619010 -0.195773662331 0.969764417119 -0.110011834806 0.967486198664 -0.099331848337 -0.049774273985 -0.189143884721
1.542076444000 -0.016371345977 -0.195853125146 0.969941750274 -0.111178073686 0.967131882749 -0.099574446170 -0.050482684269 -0.189050852798
1.543409555000 -0.016323222446 -0.195718142315 0.970185839644 -0.109636357587 0.966874752771 -0.099993834416 -0.050207166635 -0.188888072984
1.544742666000 -0.016567875561 -0.196109385502 0.970240146451 -0.110746149464 0.966870720167 -0.100229773331 -0.050613013633 -0.189275874723
1.546075777000 -0.016755217178 -0.196325334795 0.970630212823 -0.111147631536 0.967638301958 -0.100523637508 -0.050363742024 -0.189496037823
1.547408888000 -0.016818907679 -0.196422552410 0.970692231493 -0.112087707660 0.967512075625 -0.100488894162 -0.050697932595 -0.189272133940
1.548742000000 -0.016702043155 -0.196498414215 0.970069443631 -0.111530729199 0.968971314460 -0.100036965649 -0.050375217535 -0.188814048700
1.550075111000 -0.016673486143 -0.195834827149 0.969200638180 -0.111124615529 0.967823024129 -0.100283313196 -0.050745824752 -0.188726871223
1.551408222000 -0.016993954159 -0.196047532526 0.970121716556 -0.110619218137 0.966789640374 -0.101534514760 -0.051222850777 -0.189239172389
1.552741333000 -0.017245927532 -0.196297248067 0.970605611599 -0.112097578685 0.967766329734 -0.101131172538 -0.051208269557 -0.189196444593
1.554074444000 -0.017066966653 -0.196021935334 0.970085972329 -0.111652228834 0.966328678454 -0.101146328854 -0.051838744673 -0.189336686589
1.555407555000 -0.017391441893 -0.196171351203 0.969943016632 -0.111827222984 0.967153798630 -0.101857348009 -0.051495078642 -0.189297912564
1.556740666000 -0.017870697956 -0.196204618982 0.969510142900 -0.113147471705 0.967339195969 -0.101885766491 -0.051800473843 -0.189391718338
1.558073777000 -0.017754219574 -0.196016384513 0.969545029758 -0.112336635309 0.966833762556 -0.101563822935 -0.051985954169 -0.189142237052
1.559406888000 -0.018108178994 -0.196116265301 0.969819538565 -0.112783287486 0.966730461095 -0.102965519088 -0.052132836047 -0.189472355608
1.560740000000 -0.018606458969 -0.196575538736 0.970067437686 -0.113634436585 0.967370171953 -0.103647227392 -0.052022545787 -0.189885016927
1.562073111000 -0.018121289680 -0.196320941335 0.970016499352 -0.113254439235 0.968113742043 -0.101609140803 -0.052230107018 -0.188968102715
1.563406222000 -0.018848881804 -0.196199881753 0.969214498439 -0.113319503503 0.967590762631 -0.102890004278 -0.052380280327 -0.189299547274
1.564739333000 -0.018406684094 -0.195888162211 0.969163761930 -0.112731257676 0.966891346727 -0.101752991573 -0.052782054079 -0.188993169254
1.566072444000 -0.018605489671 -0.196255265881 0.969740026746 -0.113454478075 0.967289925169 -0.103135880625 -0.052562933456 -0.189392375738
1.567405555000 -0.018909492381 -0.196201734643 0.969171802468 -0.114573804333 0.966992376523 -0.102739791633 -0.052957976876 -0.189450006355
1.568738666000 -0.019277061324 -0.196315318666 0.969404649795 -0.114795603834 0.966742728000 -0.103574761575 -0.053212843501 -0.189676834830
1.570071777000 -0.019108841416 -0.196139654756 0.969179412950 -0.114446818567 0.967001917264 -0.103275743872 -0.053214660434 -0.189300906690
1.571404888000 -0.019404870893 -0.196238316305 0.969448637248 -0.114956427397 0.965825794000 -0.104340499991 -0.053768989508 -0.189569367147
1.572738000000 -0.019474714027 -0.196332656691 0.968891177404 -0.115022186141 0.966304622264 -0.103531735873 -0.053857869217 -0.189158792729
1.574071111000 -0.019814834151 -0.196338017191 0.968933049059 -0.115648885109 0.966447107138 -0.103970176815 -0.054017201173 -0.189239942919
1.575404222000 -0.019998620421 -0.196511290706 0.969153230276 -0.115183605852 0.966645584920 -0.104877558550 -0.054120631569 -0.189370064729
1.576737333000 -0.020305385920 -0.196398231640 0.968774775793 -0.115548277228 0.966834889212 -0.104784647571 -0.054336357946 -0.189194377303
1.578070444000 -0.020535534553 -0.196258704759 0.968636677867 -0.115780121616 0.966188100616 -0.105687844035 -0.054563492229 -0.189425715671
1.579403555000 -0.020329379087 -0.196358383618 0.968250353674 -0.116434876976 0.966296959980 -0.104555635496 -0.054775968095 -0.189092635382
1.580736666000 -0.020723495236 -0.196599351106 0.968339179483 -0.116137418507 0.967128573704 -0.105085516380 -0.054333954854 -0.189057245463
1.582069777000 -0.020896098201 -0.196591638314 0.968170193117 -0.116368647150 0.966956593869 -0.105849733845 -0.054555977132 -0.189297992761
1.583402888000 -0.020833748756 -0.196710156121 0.968170600528 -0.116851342228 0.966642903354 -0.105916692938 -0.054958119933 -0.189039925878
1.584736000000 -0.021239887366 -0.196694125420 0.967743206145 -0.117507354273 0.966465579790 -0.106670451610 -0.055282215602 -0.189353358487
1.586069111000 -0.021648218510 -0.196545431309 0.967640245544 -0.117225565711 0.965475117699 -0.106190175024 -0.055638339316 -0.189215965130
1.587402222000 -0.021346987679 -0.196599929194 0.968129603288 -0.117560275743 0.965714684413 -0.106449277616 -0.055534778069 -0.189119227459
1.588735333000 -0.021542393131 -0.196748419233 0.967793639067 -0.117434837105 0.966095423213 -0.106222932774 -0.055705035705 -0.188907589044
1.590068444000 -0.022007909628 -0.196799442931 0.967465417453 -0.117656223176 0.965834484287 -0.107555282302 -0.055700832210 -0.189226491024
1.591401555000 -0.021994689620 -0.196764166405 0.966891546685 -0.117823054333 0.965365101020 -0.107209617303 -0.056050995464 -0.189071413791
1.592734666000 -0.022131056692 -0.196836798333 0.966860508357 -0.118217100987 0.965565587901 -0.107362116909 -0.056158036421 -0.189220674444
1.594067777000 -0.022220118037 -0.196882514020 0.966904669170 -0.118094227906 0.966115335897 -0.107734824973 -0.056223325546 -0.189086681184
1.595400888000 -0.022360265177 -0.196912810041 0.966955767661 -0.118626933949 0.965646577829 -0.108320423801 -0.056246345820 -0.189181245139
1.596734000000 -0.022452637983 -0.196821285119 0.966820919275 -0.118427776905 0.965187431294 -0.107452519788 -0.056604659034 -0.188987741007
1.598067111000 -0.022582644618 -0.196782795101 0.966436135050 -0.118836280397 0.965109214577 -0.108342640484 -0.056651585525 -0.189004604189
1.599400222000 -0.022802834592 -0.197002519563 0.965854902894 -0.118664482217 0.964966458677 -0.107871651826 -0.056945262920 -0.188735904565
1.600733333000 -0.022923251429 -0.196863400171 0.966565335662 -0.118849941152 0.965119272631 -0.108275274600 -0.057128307349 -0.189030840333
1.602066444000 -0.023084736438 -0.196849142867 0.966584554455 -0.119521573913 0.964955734619 -0.108258361971 -0.057105720060 -0.189056555093
1.603399555000 -0.023135189669 -0.196706963473 0.965495109579 -0.119496982808 0.964756536246 -0.108633411855 -0.057274024253 -0.188775578949
1.604732666000 -0.023296212493 -0.196844734339 0.965567368702 -0.119733123199 0.964730591429 -0.108801226482 -0.057402556736 -0.188725469910
1.606065777000 -0.023545438555 -0.197037191402 0.965603446775 -0.119758227238 0.964362092153 -0.109252543055 -0.057389358182 -0.188919232664
1.607398888000 -0.023515312533 -0.196928510396 0.965723500267 -0.119959463195 0.964334559917 -0.109063381586 -0.057606639616 -0.188824124892
1.608732000000 -0.023514514002 -0.196938831776 0.965749809838 -0.119515925513 0.964068274611 -0.108991880107 -0.057785922463 -0.188608580839
1.610065111000 -0.023726333853 -0.197027984626 0.965262603381 -0.120491496554 0.964400036218 -0.109329422582 -0.057814651062 -0.188710510461
1.611398222000 -0.023746467772 -0.196970630288 0.965377072890 -0.120849015863 0.964288438425 -0.109375161578 -0.057888134470 -0.188879531090
1.612731333000 -0.023851223397 -0.196855548126 0.964829849309 -0.120288570992 0.963964982884 -0.109425892938 -0.057930023262 -0.188610943060
1.614064444000 -0.023802058614 -0.197057522183 0.965506763929 -0.120469490267 0.964240677745 -0.109302570107 -0.057954660789 -0.188498853262
1.615397555000 -0.024005740700 -0.197022985043 0.964863147750 -0.121420745424 0.963779563063 -0.109501850716 -0.058187443076 -0.188508992289
1.616730666000 -0.024310895675 -0.197197713849 0.963239936784 -0.122030222491 0.963616721502 -0.109815150293 -0.058387563564 -0.188536783006
1.618063777000 -0.024309855740 -0.197149439889 0.964541004724 -0.122234462606 0.963207818955 -0.110147193946 -0.058308127663 -0.188720254151
1.619396888000 -0.024337645862 -0.197243292345 0.963996619537 -0.121442379176 0.963434048462 -0.109945374363 -0.058440367451 -0.188534219651
1.620730000000 -0.024524946518 -0.197070979721 0.963262398309 -0.121860039589 0.963409693293 -0.110070227248 -0.058510938653 -0.188627533167
1.622063111000 -0.024677377221 -0.197105389347 0.962092754154 -0.121961541085 0.962714990755 -0.110704552108 -0.058909582330 -0.188440585035
1.623396222000 -0.024703056276 -0.197253204963 0.962671235814 -0.122538368684 0.962667113010 -0.110782891890 -0.058676159722 -0.188547969882
1.624729333000 -0.024653436503 -0.196996090820 0.962285597339 -0.121804169255 0.962995221748 -0.110109048632 -0.058705649255 -0.188451860623
1.626062444000 -0.024855431600 -0.196887002915 0.962827913395 -0.122564828415 0.962107205850 -0.110355026929 -0.058740609455 -0.188394261484
1.627395555000 -0.024631634315 -0.197194690831 0.964471826057 -0.122188420176 0.962532351296 -0.110635087486 -0.058707385611 -0.188502506421
1.628728666000 -0.024982480894 -0.197208066753 0.963032513766 -0.122337587664 0.962360696635 -0.110965729674 -0.058970236399 -0.188379199927
1.630061777000 -0.025132314973 -0.197073542210 0.961078751396 -0.121867534970 0.962139753421 -0.110832624510 -0.058944981926 -0.188157135858
1.631394888000 -0.024966366581 -0.197215336888 0.962592688330 -0.123283397745 0.961966164880 -0.110595643805 -0.059015740434 -0.188462928437
1.632728000000 -0.025176394004 -0.197065353429 0.961917134392 -0.123352981540 0.961629848879 -0.110313733026 -0.059178187091 -0.188407822400
1.634061111000 -0.024871222661 -0.197468240319 0.963136869259 -0.123954394585 0.961949643132 -0.111066028708 -0.058923710656 -0.188565110292
1.635394222000 -0.025061925401 -0.197013153191 0.961238817969 -0.121575232514 0.962198225102 -0.111190789000 -0.059040716284 -0.187859305857
1.636727333000 -0.024933381562 -0.197238489415 0.962832551449 -0.122802176147 0.961615774123 -0.111186150218 -0.058749539727 -0.188394366239
1.638060444000 -0.025416681111 -0.197200271015 0.960565297412 -0.122138727422 0.962073451254 -0.111207734229 -0.059199162565 -0.188146263015
1.639393555000 -0.025856197055 -0.197424183572 0.960168659425 -0.123910166215 0.960801207557 -0.112165479540 -0.059703297455 -0.188473867626
1.640726666000 -0.025451369947 -0.197419499958 0.961630103736 -0.123533557224 0.961795934820 -0.111142992234 -0.059128136263 -0.188249570992
1.642059777000 -0.025493863833 -0.197238957675 0.960935634655 -0.122864413869 0.960957538950 -0.111030429031 -0.059251959031 -0.187988870941
1.643392888000 -0.025437728905 -0.197244844004 0.961137144112 -0.123178293410 0.961400058687 -0.110899108937 -0.059113079639 -0.188162480019
1.644726000000 -0.025635329150 -0.197232676869 0.960744385091 -0.123256525713 0.960806863160 -0.111067453378 -0.059166941939 -0.187975969853
1.646059111000 -0.025935295852 -0.196959147221 0.960211977064 -0.122692754157 0.959794525087 -0.111024228481 -0.059329551895 -0.187666493660
1.647392222000 -0.025929804659 -0.197244042012 0.960413041691 -0.124411136046 0.959621745374 -0.110949479698 -0.059721765688 -0.187942567955
1.648725333000 -0.025592165487 -0.197169125597 0.961490709343 -0.123984721377 0.960231209622 -0.110828436483 -0.059188806691 -0.187995240559
1.650058444000 -0.025900702684 -0.197080457225 0.960283690622 -0.123089030800 0.959954461902 -0.110827428809 -0.059478994962 -0.187681407442
1.651391555000 -0.025861460267 -0.197357188131 0.960707373002 -0.123922553461 0.960175260518 -0.111488211180 -0.059299558374 -0.187735615130
1.652724666000 -0.026034615790 -0.197353438139 0.960262958130 -0.124419195958 0.959599219847 -0.111637509492 -0.059535954162 -0.187805571409
1.654057777000 -0.025871801043 -0.197187568559 0.960176680748 -0.123624201208 0.959332910919 -0.110656337385 -0.059618008324 -0.187404785287
1.655390888000 -0.026046355312 -0.197183258441 0.960263035606 -0.124134561215 0.959086810951 -0.110872424558 -0.059566416696 -0.187479128848
1.656724000000 -0.025919042620 -0.197140166367 0.960201716751 -0.123352939547 0.959233198985 -0.111360672817 -0.059410718359 -0.187353255709
1.658057111000 -0.025802673648 -0.197495846654 0.960190477522 -0.124245874345 0.960226164970 -0.111195492640 -0.059165453612 -0.187532712335
1.659390222000 -0.026145526252 -0.197171610701 0.960010092913 -0.123389032830 0.958432060372 -0.111600428904 -0.059338192887 -0.187305819401
1.660723333000 -0.025949096548 -0.197558950198 0.959626581198 -0.124434236243 0.959759977533 -0.111374855821 -0.059196539100 -0.187175025519
1.662056444000 -0.025711555288 -0.196891264977 0.959902853645 -0.123260682840 0.958620952220 -0.109936052912 -0.059420132276 -0.186501908398
1.663389555000 -0.025858063361 -0.196785969978 0.959277733424 -0.122618257257 0.958769905681 -0.110654893824 -0.059356540223 -0.186520610517
1.664722666000 -0.025721348041 -0.197578460845 0.959977336318 -0.123707968273 0.959586685741 -0.112377198036 -0.059175317900 -0.187555587992
1.666055777000 -0.025649747385 -0.196915176260 0.959163788066 -0.123619199408 0.958961153144 -0.110247591764 -0.059470111634 -0.186715098645
1.667388888000 -0.025715493768 -0.196873688423 0.959535318845 -0.123340548871 0.958893537300 -0.111341212533 -0.059147991662 -0.187004805190
1.668722000000 -0.025533826958 -0.196799323912 0.959435380801 -0.123531906978 0.958614215135 -0.110427803491 -0.059388674666 -0.186619756262
1.670055111000 -0.025285125291 -0.196388402541 0.959346831089 -0.122300062073 0.958541570044 -0.110247148041 -0.059127359794 -0.186343024537
1.671388222000 -0.025535348254 -0.197092228644 0.959499576268 -0.123555137904 0.958839751692 -0.111865032268 -0.058947886625 -0.186998245754
1.672721333000 -0.025266481595 -0.196806641942 0.958350416846 -0.123125972958 0.959375554517 -0.110167902323 -0.059407648851 -0.186362151382
1.674054444000 -0.025342648662 -0.197271573576 0.959532526987 -0.123684594928 0.958808821227 -0.112063192153 -0.058633004881 -0.187190533370
1.675387555000 -0.024805865972 -0.196692396508 0.959428932924 -0.123124788502 0.959081667827 -0.110435427420 -0.058817199293 -0.186632736579
1.676720666000 -0.024819584843 -0.196989650163 0.959654895192 -0.123229078939 0.959458281230 -0.110898820624 -0.058408361676 -0.186788733577
1.678053777000 -0.024045663929 -0.196810327938 0.959838778857 -0.122861708136 0.959985267233 -0.110260720116 -0.058495764623 -0.186301241829
1.679386888000 -0.024659272516 -0.196879830268 0.959070712402 -0.123208267051 0.959479166083 -0.110653345378 -0.058674940726 -0.186483376693
1.680720000000 -0.024285698190 -0.197066723698 0.959518846152 -0.123293560198 0.960143791815 -0.110910895078 -0.058164732313 -0.186754850371
1.682053111000 -0.024592204139 -0.197082431261 0.959336291595 -0.123541693646 0.959341926444 -0.111224457131 -0.058341384562 -0.186874127346
1.683386222000 -0.024408158598 -0.197037382109 0.959618888717 -0.123085196601 0.959703319749 -0.111627834456 -0.057875667776 -0.186880642888
1.684719333000 -0.023935788619 -0.196903541380 0.959377730815 -0.122950229633 0.959823895045 -0.110959022252 -0.058200343349 -0.186683421686
1.686052444000 -0.023497496019 -0.197218623431 0.959966674491 -0.123319457733 0.960533799300 -0.110928550559 -0.057614779906 -0.186775872189
1.687385555000 -0.023543342262 -0.197450995134 0.959972927738 -0.123652359710 0.960149048023 -0.111092627163 -0.057744549701 -0.186863707795
1.688718666000 -0.023879691073 -0.197327389940 0.959768328796 -0.122853844708 0.959448241656 -0.112394916081 -0.057805760116 -0.187329688083
1.690051777000 -0.023811230386 -0.197498666753 0.959977292837 -0.123857812003 0.959561632525 -0.112297589398 -0.057732099930 -0.187578895290
1.691384888000 -0.023276820214 -0.198054151427 0.960110886042 -0.123403999302 0.961452786011 -0.112793416828 -0.056789745724 -0.187532876307
1.692718000000 -0.023243160422 -0.197793024452 0.960470119632 -0.123632308151 0.959979695061 -0.113124502382 -0.057128743611 -0.187952472033
1.694051111000 -0.023067402289 -0.197556336644 0.960244302190 -0.123497273319 0.959841269807 -0.111681022126 -0.057124821891 -0.187443929451
1.695384222000 -0.022854247225 -0.197818898289 0.960661062350 -0.124273036365 0.959998120675 -0.112199354502 -0.057091832666 -0.187968745907
1.696717333000 -0.022622310361 -0.198051857358 0.960804369983 -0.123685595664 0.960713510394 -0.112336090082 -0.056363866618 -0.187840439611
1.698050444000 -0.022729649662 -0.197869428354 0.960605117526 -0.124084714540 0.959722351998 -0.111849215619 -0.056844865525 -0.188114261843
1.699383555000 -0.022831919679 -0.198315829511 0.960686982446 -0.124492434138 0.959775835774 -0.112731128158 -0.056447092063 -0.188523361111
1.700716666000 -0.022614276920 -0.198418206959 0.960503199076 -0.124209309663 0.960038851986 -0.112639284624 -0.056439756116 -0.188283224812
1.702049777000 -0.021929340564 -0.198545777480 0.961785044741 -0.124157962548 0.960893703279 -0.113040165194 -0.055548119826 -0.188840098526
1.703382888000 -0.021619806158 -0.198405544535 0.961176674764 -0.124870038522 0.960136083680 -0.112005852541 -0.056271778637 -0.188721266603
1.704716000000 -0.022145477444 -0.198601940859 0.960816361134 -0.124668765857 0.959555409518 -0.113244413461 -0.056306665730 -0.189167282438
1.706049111000 -0.022276463831 -0.199109288800 0.960801114193 -0.125367155283 0.959615068920 -0.114311683465 -0.056068163961 -0.189565339538
1.707382222000 -0.021266677315 -0.199412704273 0.962205312018 -0.125557472432 0.960953993144 -0.114140000893 -0.055268567818 -0.189806882545
1.708715333000 -0.021635132186 -0.199442291562 0.961475809041 -0.125324799918 0.960405705628 -0.114309407631 -0.055389205532 -0.189821127915
1.710048444000 -0.021251143716 -0.199692791892 0.961808711441 -0.125918081546 0.961128215516 -0.114460939667 -0.055189905150 -0.190151667197
1.711381555000 -0.020668624687 -0.200219301101 0.962024098505 -0.127374068082 0.961162763148 -0.114758666272 -0.055415803290 -0.190506445058
1.712714666000 -0.020879841523 -0.199610481796 0.962194198507 -0.126281756269 0.960821981117 -0.114213632086 -0.055006174160 -0.190632802297
1.714047777000 -0.021162860568 -0.200003756301 0.961285419890 -0.126335043343 0.960452596704 -0.113915916146 -0.055413888481 -0.190320055746
1.715380888000 -0.020587326374 -0.200436632711 0.962249683870 -0.128090925505 0.960633068215 -0.115130402633 -0.055151581039 -0.191344389625
1.716714000000 -0.021276560521 -0.199317448696 0.961399284062 -0.125635006626 0.959706319218 -0.113711084841 -0.054637004963 -0.190549749353
1.718047111000 -0.020263413096 -0.200483495152 0.962873932011 -0.127765793802 0.961254076106 -0.114850284137 -0.054182724775 -0.191507396776
1.719380222000 -0.021209290486 -0.200718610483 0.961538844457 -0.128023797304 0.960803067089 -0.115121038505 -0.054394428284 -0.191596634805
1.720713333000 -0.020340370049 -0.200533303466 0.961719585074 -0.125953433617 0.962144105935 -0.113812005682 -0.053819969804 -0.190585778814
1.722046444000 -0.019434341158 -0.200936645601 0.963960618884 -0.127623668803 0.963156653372 -0.114960036899 -0.053170563243 -0.191810155992
1.723379555000 -0.020540205721 -0.200565511121 0.961690417287 -0.126008702354 0.961690019952 -0.113887344067 -0.053396143823 -0.190758904096
1.724712666000 -0.019676148806 -0.201078711310 0.963023781392 -0.127931723768 0.962243493821 -0.114550583781 -0.053662999272 -0.191814081163
1.726045777000 -0.020095926134 -0.201392361955 0.962286844792 -0.128669879161 0.961464771370 -0.115613560985 -0.053745119057 -0.192118042336
1.727378888000 -0.020433360442 -0.200794809372 0.961508893012 -0.126770087128 0.960837644878 -0.113894052913 -0.053357822240 -0.191406144363
1.728712000000 -0.019483249525 -0.201557015480 0.962850413661 -0.129022460083 0.962019005240 -0.114825419993 -0.053408563159 -0.192220018992
1.730045111000 -0.018991299409 -0.202218122987 0.963149751374 -0.130199833603 0.962200220261 -0.115297910564 -0.053600100230 -0.192537748462
1.731378222000 -0.018835927957 -0.201293656465 0.963936948585 -0.129336810476 0.961833001234 -0.114861439537 -0.053566087639 -0.192917468694
1.732711333000 -0.019258531595 -0.201521278104 0.965234672053 -0.128943785825 0.962869656384 -0.115923170215 -0.052322370351 -0.193659428772
1.734044444000 -0.018915295548 -0.201083634544 0.965344024250 -0.129047623660 0.962697303372 -0.115843997463 -0.052573259555 -0.193794236131
1.735377555000 -0.020232632440 -0.202096409115 0.961020582224 -0.129187446698 0.961479771400 -0.115624903590 -0.052901616523 -0.192589596212
1.736710666000 -0.020161752475 -0.202119375273 0.962422720887 -0.128657569735 0.962334712144 -0.116025041029 -0.052256678713 -0.192770700831
1.738043777000 -0.019783084265 -0.203016216073 0.961763216043 -0.130343723426 0.961945244738 -0.115779175067 -0.053126801801 -0.192511295551
1.739376888000 -0.019563722530 -0.203002450228 0.962617626974 -0.130672436091 0.961828505660 -0.116392211657 -0.053165110323 -0.193254777245
1.740710000000 -0.018834102644 -0.202566723914 0.964560401474 -0.130660226232 0.962419485950 -0.116660807583 -0.052435284312 -0.194271747810
1.742043111000 -0.018890851849 -0.203645465446 0.963437783535 -0.131932326864 0.962180941576 -0.117279659293 -0.053028273691 -0.194103687420
1.743376222000 -0.018966543267 -0.203730081899 0.963452876919 -0.131800402907 0.962274667629 -0.117412106140 -0.052951012997 -0.194088085117
1.744709333000 -0.019183067702 -0.203550243413 0.963319021042 -0.130847017492 0.962651001596 -0.116789711943 -0.052338871532 -0.193791703479
1.746042444000 -0.019324543536 -0.203065836431 0.964716062297 -0.130569282512 0.962570520186 -0.116845865004 -0.051765635693 -0.194587354086
1.747375555000 -0.019134694089 -0.203625821809 0.964229261435 -0.131969758874 0.962345627762 -0.117302133251 -0.052417093017 -0.195088621603
1.748708666000 -0.018985706622 -0.203839447357 0.963229249325 -0.131601026186 0.962515826000 -0.116849028304 -0.052501592149 -0.194273193582
1.750041777000 -0.018962723542 -0.204486395934 0.962599474265 -0.132320986304 0.962569592374 -0.117505975702 -0.052766556062 -0.194266071733
1.751374888000 -0.019725804172 -0.204156810114 0.962588506516 -0.130610878597 0.962398246336 -0.116938013603 -0.052312518661 -0.194163536142
1.752708000000 -0.018979541692 -0.204573227181 0.964106731726 -0.133602247301 0.962473624778 -0.118353631984 -0.052725800407 -0.195637018684
1.754041111000 -0.019061045732 -0.205246514060 0.962942993166 -0.134037475016 0.961971880241 -0.118595353127 -0.052872450108 -0.195591975574
1.755374222000 -0.020334681580 -0.204620718388 0.961890852286 -0.129140586642 0.963002551374 -0.116702915922 -0.050722038320 -0.194226001619
1.756707333000 -0.018219902191 -0.205133531681 0.964343062724 -0.133469104490 0.963495572732 -0.117948985631 -0.052174036828 -0.195876236954
1.758040444000 -0.019256054556 -0.205107240984 0.963944937833 -0.133078888028 0.962749754501 -0.118171437758 -0.051855449072 -0.195780152589
1.759373555000 -0.018360969757 -0.205300546724 0.964027190524 -0.133888478999 0.962884508381 -0.117795053393 -0.052347379734 -0.195981995237
1.760706666000 -0.018494107555 -0.206230515213 0.964335036599 -0.134397357860 0.963857454734 -0.118299392060 -0.052548327392 -0.195743149368
1.762039777000 -0.018984614650 -0.206032117038 0.961679121867 -0.135282955658 0.961218433787 -0.118603568218 -0.053413573957 -0.196489552912
1.763372888000 -0.019037289222 -0.205239356547 0.963234893821 -0.132464295233 0.961539068460 -0.118245152857 -0.052761252186 -0.197288538133
1.764706000000 -0.019161772814 -0.205574841095 0.962631693031 -0.133335376370 0.961757303715 -0.118472440643 -0.052492989989 -0.196807741397
1.766039111000 -0.018744603333 -0.205930391752 0.964205562465 -0.133680619915 0.962781600154 -0.119018109478 -0.052325358300 -0.197445823944
1.767372222000 -0.018636431540 -0.207219292072 0.962694982749 -0.135060359206 0.962389702068 -0.119093070702 -0.053165038095 -0.196856394714
1.768705333000 -0.018556154589 -0.206180699670 0.963748761550 -0.134474955820 0.962100095894 -0.119021832234 -0.052756068729 -0.197983327725
1.770038444000 -0.019040512699 -0.205873436757 0.964073330531 -0.133574145440 0.962317778320 -0.119399887145 -0.051998999160 -0.198352255929
1.771371555000 -0.018356982680 -0.206964251289 0.962903296415 -0.134574504778 0.962404175298 -0.118471519719 -0.052867261139 -0.197814705120
1.772704666000 -0.019352564369 -0.206799531463 0.962102227405 -0.134127798085 0.961163570618 -0.119329249249 -0.052251738228 -0.198212926697
1.774037777000 -0.018317133038 -0.206693136487 0.963850352759 -0.133710317117 0.962200534423 -0.118449344162 -0.052509149739 -0.198490028272
1.775370888000 -0.018341150078 -0.206692479191 0.964579355469 -0.134104728519 0.962005001549 -0.119490478443 -0.052017415388 -0.199328689887
1.776704000000 -0.018463599925 -0.206808445062 0.963681078300 -0.134994043861 0.961201052259 -0.119583810435 -0.052762088651 -0.199672806174
1.778037111000 -0.018646261990 -0.207628950796 0.964323443818 -0.135791922605 0.962329911844 -0.120419290251 -0.052029610513 -0.199627777489
1.779370222000 -0.018591491415 -0.207357394912 0.963476004954 -0.135906684252 0.961413000592 -0.119841140983 -0.052780201459 -0.199609386202
1.780703333000 -0.018565914407 -0.207822140621 0.963325905751 -0.136223454539 0.960622652289 -0.120179982730 -0.052942549308 -0.199847283338
1.782036444000 -0.018228225551 -0.207628248924 0.964173409560 -0.136392828407 0.961364433955 -0.119809247688 -0.053101605945 -0.200195954734
1.783369555000 -0.018793784811 -0.208080945615 0.963872080402 -0.135533352344 0.961911026214 -0.120297929190 -0.052080762712 -0.199870463965
1.784702666000 -0.018300025858 -0.209012236984 0.963675664392 -0.136029922451 0.962750072309 -0.119742640873 -0.052653633642 -0.199481919550
1.786035777000 -0.018557352228 -0.208854114262 0.963531389706 -0.136913915985 0.961869541775 -0.120796307504 -0.052622431865 -0.199955407699
1.787368888000 -0.018159372140 -0.208526018022 0.963476051247 -0.136549359427 0.960947070505 -0.120193468679 -0.052646608320 -0.200338539487
1.788702000000 -0.019092752575 -0.208196896011 0.963710257105 -0.136277168585 0.960621601654 -0.121324409898 -0.052255446348 -0.200662891426
1.790035111000 -0.018727979313 -0.208568683889 0.964287350121 -0.136456719764 0.961141963191 -0.120613023260 -0.052494224902 -0.200749979351
1.791368222000 -0.018652259987 -0.209638360753 0.962892840490 -0.137443484758 0.961764628171 -0.120307749762 -0.052996732858 -0.200024607075
1.792701333000 -0.018545718340 -0.209278038264 0.964269079750 -0.137360934650 0.961608720202 -0.121206727338 -0.052600293786 -0.200874755655
1.794034444000 -0.018602404650 -0.209420871896 0.964188518379 -0.138538291414 0.961306367878 -0.121895390940 -0.052693966892 -0.200984714181
1.795367555000 -0.017901089531 -0.209257396034 0.963591037070 -0.138092515943 0.959617051919 -0.120126242444 -0.053315890231 -0.201685635856
1.796700666000 -0.018982240937 -0.210107717560 0.963675053047 -0.137998168759 0.961590822701 -0.121540058619 -0.052991521714 -0.201010649358
1.798033777000 -0.018401319850 -0.210239012296 0.964294532299 -0.138310834203 0.962152605843 -0.121545042571 -0.053102652154 -0.201048623222
1.799366888000 -0.018835156439 -0.209677028551 0.964383115875 -0.138328135387 0.961255624782 -0.121960240303 -0.052715162424 -0.201131518322
1.800700000000 -0.018028948993 -0.210341616790 0.964945202045 -0.139160642998 0.961304145376 -0.121541197604 -0.053368295999 -0.201489507843
1.802033111000 -0.019427423155 -0.210910581042 0.964130980697 -0.138687565525 0.961948391041 -0.122087786248 -0.052628615330 -0.201283581712
1.803366222000 -0.018598909398 -0.210050821476 0.964547099913 -0.139238209067 0.960299315774 -0.121159940782 -0.053458461844 -0.202099665975
1.804699333000 -0.018865912790 -0.210176866346 0.964468271031 -0.139116726082 0.960763792179 -0.121806466057 -0.053242736143 -0.202579459011
1.806032444000 -0.019369678675 -0.211098649121 0.963870390735 -0.140099689752 0.959907319053 -0.123225373960 -0.053285538300 -0.202017108098
1.807365555000 -0.019957775238 -0.211460595269 0.963764881067 -0.139770634568 0.960496298952 -0.122798261162 -0.053494137545 -0.201775831341
1.808698666000 -0.019549517654 -0.210148781719 0.964868128574 -0.139748922936 0.960286983898 -0.123959233957 -0.053470506862 -0.202673713950
1.810031777000 -0.019807781684 -0.210743635203 0.965262553776 -0.139530186781 0.961281385604 -0.123309750926 -0.053234476048 -0.202254011322
1.811364888000 -0.019247590302 -0.211347085354 0.964545093542 -0.140195920960 0.960828158079 -0.122913374418 -0.053672424111 -0.202152744758
1.812698000000 -0.019796346620 -0.211765099623 0.964691551386 -0.140403216269 0.961224175290 -0.123113050691 -0.054058854638 -0.201970512485
1.814031111000 -0.020546150806 -0.211844287569 0.965000859530 -0.141283845740 0.962204221618 -0.124896914172 -0.053481864843 -0.201848805350
1.815364222000 -0.020643982647 -0.212025406450 0.964970365859 -0.141062025968 0.961619457687 -0.124774069670 -0.053220683318 -0.202185866847
1.816697333000 -0.020496330543 -0.212554907892 0.964608629429 -0.140977365480 0.962500327274 -0.123903125168 -0.054393101514 -0.202280331787
1.818030444000 -0.020156838684 -0.212693034594 0.965056031909 -0.141592738971 0.962662733944 -0.123062274855 -0.054630086749 -0.202169588085
1.819363555000 -0.020160452371 -0.212246303515 0.964602184774 -0.141744091983 0.960977703830 -0.124219534621 -0.054237895167 -0.202471557127
1.820696666000 -0.020619603402 -0.212588905099 0.965081827963 -0.142066860153 0.962062647869 -0.124405876665 -0.054653714425 -0.202387526927
1.822029777000 -0.021066307842 -0.212305905117 0.965049884240 -0.142404188326 0.961581711707 -0.125167313692 -0.054499793233 -0.202922381186
1.823362888000 -0.019872312293 -0.213355912767 0.964897144365 -0.142276073270 0.962753401736 -0.123087236418 -0.055217970717 -0.202602795871
1.824696000000 -0.020339037095 -0.213351724692 0.965219659537 -0.142836992446 0.962718420621 -0.123389441586 -0.055299087294 -0.202775009411
1.826029111000 -0.021285694044 -0.213326884866 0.965620796319 -0.143514630608 0.962853082192 -0.124875102962 -0.055597007240 -0.202649661279
1.827362222000 -0.020936404694 -0.212712672756 0.965149470359 -0.143311799771 0.960884784942 -0.125586843068 -0.055161649511 -0.202895195427
1.828695333000 -0.020096878416 -0.213211933956 0.965083760130 -0.142591049709 0.961889017604 -0.123030070966 -0.056018978071 -0.203452120087
1.830028444000 -0.020635462473 -0.212669482173 0.965531149451 -0.144261867415 0.960593250943 -0.124489963114 -0.055793994472 -0.203192749793
1.831361555000 -0.021768220396 -0.213126856868 0.965174988802 -0.144593619856 0.962087797554 -0.126931559150 -0.055790419058 -0.202722788853
1.832694666000 -0.021085584278 -0.213131178985 0.965440203421 -0.143939985612 0.961424685802 -0.125539049278 -0.055676259034 -0.203273008854
1.834027777000 -0.021414969420 -0.212755733103 0.964518035101 -0.143660635808 0.961240085835 -0.126724781319 -0.055931219467 -0.202971778951
1.835360888000 -0.021486256574 -0.213665716998 0.965690489832 -0.144666458590 0.962327614413 -0.125993502806 -0.056309435466 -0.202985362367
1.836694000000 -0.021864264844 -0.213452602272 0.965530259944 -0.145442067699 0.961941276078 -0.126766114918 -0.056577928947 -0.202937972340
1.838027111000 -0.021768952588 -0.213368184923 0.965850969651 -0.145242997677 0.961306051836 -0.125856840024 -0.056672980661 -0.203648432490
1.839360222000 -0.022187933082 -0.213869615096 0.965169220633 -0.145828372269 0.963042517833 -0.126935311548 -0.056926087720 -0.202648108772
1.840693333000 -0.022102923455 -0.214085770211 0.966152320933 -0.144704923079 0.963058414290 -0.126524093050 -0.057132575706 -0.203309688395
1.842026444000 -0.022491887480 -0.213880690153 0.965395547633 -0.145540936959 0.962792769693 -0.128036026284 -0.057204416269 -0.202974196118
1.843359555000 -0.022413374237 -0.213529671703 0.965227589437 -0.145566943464 0.962029441257 -0.127607471173 -0.057226533024 -0.203216569106
1.844692666000 -0.022611394429 -0.213624320990 0.965649191007 -0.146341340601 0.962258480854 -0.127990804165 -0.057494121366 -0.203180090202
1.846025777000 -0.023001925867 -0.213807818820 0.965991432388 -0.146091438687 0.963241032233 -0.128112648130 -0.057726741321 -0.203813946262
1.847358888000 -0.022933346829 -0.213802893885 0.965341248752 -0.146391183900 0.962878955254 -0.127915772359 -0.057514684783 -0.203247750086
1.848692000000 -0.023459065143 -0.213717551219 0.965595066858 -0.146153274342 0.962822933356 -0.128532485213 -0.057654207667 -0.203134959430
1.850025111000 -0.022987283444 -0.214058841417 0.965960942750 -0.147130335028 0.963057773842 -0.128271002863 -0.058196101531 -0.203272322914
1.851358222000 -0.023783277662 -0.213885821216 0.966209192915 -0.146425757579 0.963342356662 -0.128951882903 -0.058448791962 -0.202986587560
1.852691333000 -0.024287377371 -0.213732213991 0.965320214707 -0.146169255212 0.963241231582 -0.129788220411 -0.058341252765 -0.202619285009
1.854024444000 -0.024007281712 -0.213612777691 0.966564880400 -0.146878872009 0.962958890548 -0.129732755713 -0.058566592754 -0.202597954693
1.855357555000 -0.024196703757 -0.213764716339 0.965657560542 -0.147592251240 0.963746890255 -0.129857897785 -0.059148554631 -0.202647055964
1.856690666000 -0.024151973572 -0.213343121530 0.965959550889 -0.146998297538 0.962786824706 -0.130016748122 -0.059077327889 -0.202500951303
1.858023777000 -0.024714795123 -0.213550214114 0.964714073524 -0.148341672644 0.963034592034 -0.129490984054 -0.058935666790 -0.202388719469
1.859356888000 -0.025053529048 -0.213607325847 0.964970959052 -0.146719793622 0.964392274250 -0.130108457422 -0.058896585548 -0.202973805974
1.860690000000 -0.024811605368 -0.213521810573 0.966034298915 -0.148042353665 0.963762980551 -0.130563347765 -0.059127473891 -0.202420872387
1.862023111000 -0.025092840629 -0.213310397110 0.965639804308 -0.149152075660 0.963311876719 -0.130714263773 -0.059458730752 -0.202112935884
1.863356222000 -0.025318089459 -0.213647005592 0.965181626797 -0.148951304200 0.964272367931 -0.130881820476 -0.059665202256 -0.202404931545
1.864689333000 -0.025356572804 -0.213309302553 0.965188983645 -0.147867738830 0.964035906844 -0.131084498411 -0.059746612920 -0.202214115958
1.866022444000 -0.025303334728 -0.213246014455 0.966174130932 -0.148805096680 0.964176710114 -0.130540190710 -0.059783151893 -0.202467498628
1.867355555000 -0.025860243312 -0.212923785296 0.965754010128 -0.149310976860 0.963657549889 -0.131596692601 -0.060180793317 -0.202075596764
1.868688666000 -0.025828744663 -0.213305731961 0.965421280637 -0.150055246679 0.964295975968 -0.131471279712 -0.060597843608 -0.201911246817
1.870021777000 -0.026519986056 -0.213170802178 0.963728244058 -0.150068066836 0.964600446339 -0.131228706355 -0.059969362830 -0.201510118746
1.871354888000 -0.026478742316 -0.213006249813 0.964471101837 -0.150284121776 0.964279819603 -0.132040653643 -0.060492554669 -0.201141890484
1.872688000000 -0.026642097781 -0.213323574534 0.964321674737 -0.150683411553 0.964569004958 -0.132457459348 -0.061118695033 -0.201383196986
1.874021111000 -0.026939299055 -0.213055711710 0.963602363905 -0.150390330602 0.964319171723 -0.132237394386 -0.060980123699 -0.200731750670
1.875354222000 -0.026961338650 -0.212498310505 0.963744551117 -0.149603585292 0.964297030615 -0.132283507352 -0.060511261522 -0.201381018696
1.876687333000 -0.027102029837 -0.212529721927 0.964188958414 -0.149293737513 0.964231009286 -0.132046618747 -0.060887997955 -0.201576785715
1.878020444000 -0.026946050781 -0.212869016844 0.964802394497 -0.152359131069 0.963894394663 -0.133105096751 -0.061385904176 -0.200805810714
1.879353555000 -0.026759513933 -0.212615001463 0.964982910857 -0.152354448717 0.964129115530 -0.132927610365 -0.061568197946 -0.200740443863
1.880686666000 -0.027286051832 -0.212411280700 0.964027352647 -0.152660497548 0.964104879522 -0.133613752241 -0.062098970236 -0.200764026534
1.882019777000 -0.027680402931 -0.212116041376 0.963930825627 -0.151885643217 0.964384438735 -0.134123776517 -0.061322113206 -0.200673389361
1.883352888000 -0.027713218484 -0.211874277445 0.963531764669 -0.152089123416 0.964026764716 -0.134327525914 -0.061420620621 -0.200934490186
1.884686000000 -0.027811284607 -0.211931674643 0.963835439944 -0.152406074111 0.963890119386 -0.134398796020 -0.061467645952 -0.200467393717
1.886019111000 -0.027668558765 -0.211800307639 0.964206446696 -0.152231667785 0.964125728469 -0.134786197526 -0.061777915248 -0.200256650180
1.887352222000 -0.028274110201 -0.211753012592 0.962565630787 -0.152312828834 0.963817996057 -0.134791188024 -0.062029103935 -0.200216389641
1.888685333000 -0.028280434713 -0.211541069393 0.963532061489 -0.151941853380 0.963997406229 -0.134602774816 -0.062072058391 -0.200147525423
1.890018444000 -0.028214594833 -0.211463650774 0.963665040775 -0.152758780119 0.963847629358 -0.134964991775 -0.061666807538 -0.200255788958
1.891351555000 -0.028373752720 -0.211623377592 0.963004450203 -0.152750000365 0.963815533773 -0.134900513021 -0.062843853372 -0.200089192529
1.892684666000 -0.028376668123 -0.211500328565 0.962697154867 -0.152937472564 0.963643898521 -0.135036700071 -0.062321683294 -0.199765538873
1.894017777000 -0.028735285997 -0.211563326186 0.962252843150 -0.153298867345 0.963799861603 -0.135157032148 -0.062424380356 -0.199836499842
1.895350888000 -0.028607050650 -0.211538066945 0.962960754450 -0.153977484912 0.963380506130 -0.135721645519 -0.062864942281 -0.200152327036
1.896684000000 -0.028837974905 -0.211359563517 0.962445419985 -0.153765296012 0.963260458934 -0.135646049027 -0.062652805638 -0.199950441609
1.898017111000 -0.028746246087 -0.211231451665 0.962965200218 -0.153317190198 0.963475851730 -0.135966753236 -0.062662849862 -0.199630439706
1.899350222000 -0.029087754339 -0.211226687195 0.962050635142 -0.154214254067 0.963129215665 -0.136009232162 -0.062919455332 -0.199220608886
1.900683333000 -0.028962128169 -0.211074977281 0.962491114232 -0.153300033488 0.963500417188 -0.136151490314 -0.063153640508 -0.199259412942
1.902016444000 -0.029156890421 -0.211506938191 0.961637760811 -0.154041343504 0.963615719446 -0.136379037324 -0.063050853862 -0.198569012374
1.903349555000 -0.029351125081 -0.211367998120 0.961622568792 -0.154836682085 0.962712944930 -0.136891378219 -0.062856523089 -0.199095945040
1.904682666000 -0.029531573054 -0.211129547924 0.961197882827 -0.154321837862 0.962135193215 -0.136639583708 -0.062939500768 -0.199298427707
1.906015777000 -0.029675211198 -0.211295532749 0.960282267531 -0.154300708423 0.961601363135 -0.136363786177 -0.063293340303 -0.199369885228
1.907348888000 -0.030102140716 -0.211060498814 0.960143781019 -0.154342813331 0.961457018406 -0.137018737755 -0.062960347872 -0.198896782009
1.908682000000 -0.029552195440 -0.211087408244 0.960343638040 -0.154419424602 0.962082411798 -0.136160679699 -0.063053892057 -0.199250482329
1.910015111000 -0.029934436252 -0.211338783666 0.959782988650 -0.154685352412 0.961884639347 -0.136789645948 -0.063332160273 -0.198667590298
1.911348222000 -0.030034164247 -0.211339640338 0.959840546368 -0.154674368286 0.961737075691 -0.137206564633 -0.063134468877 -0.198925643951
1.912681333000 -0.029887422536 -0.211233344741 0.959721380385 -0.154900024958 0.961391620928 -0.137803068284 -0.063106586059 -0.198775400755
1.914014444000 -0.029867125323 -0.211620402597 0.959803812084 -0.155184342932 0.961580309579 -0.137320813133 -0.063432025155 -0.198458025203
1.915347555000 -0.029756162197 -0.211200642611 0.959838586235 -0.155087401534 0.961365740172 -0.137045336629 -0.063572181283 -0.198792678918
1.916680666000 -0.030182181500 -0.211238193367 0.959588857514 -0.155070770094 0.961147143990 -0.138159878959 -0.063091307234 -0.198639255403
1.918013777000 -0.030079561983 -0.211515899598 0.959653162697 -0.155110855273 0.961734285269 -0.138332135851 -0.063117066986 -0.198482158662
1.919346888000 -0.029899221768 -0.211559138199 0.959392546618 -0.155046677904 0.961390382448 -0.137935279377 -0.063161892837 -0.198372223089
1.920680000000 -0.029825613587 -0.210988651872 0.959302232103 -0.155259545889 0.959836641186 -0.137217391382 -0.063561763610 -0.198856540092
1.922013111000 -0.029991904520 -0.211405204472 0.959188011004 -0.155252791790 0.961258287285 -0.138720710090 -0.063512882530 -0.198077956653
1.923346222000 -0.029970777354 -0.211630093919 0.958840020714 -0.155355785631 0.960441919444 -0.138155802290 -0.063458966812 -0.198556752273
1.924679333000 -0.029761561084 -0.211292096554 0.958396040835 -0.154920143505 0.960322437323 -0.137531883455 -0.063794256879 -0.198555155121
1.926012444000 -0.030172245287 -0.211328481995 0.958991461231 -0.155455913774 0.959923300058 -0.138644131816 -0.063504555956 -0.198611014504
1.927345555000 -0.030341662835 -0.211428910517 0.958854144411 -0.155716772569 0.959662950433 -0.139316838015 -0.063003250484 -0.198912170243
1.928678666000 -0.029808858226 -0.211003320579 0.957844102115 -0.155449087541 0.959294916161 -0.138408547296 -0.063307601170 -0.198380258658
1.930011777000 -0.029922579459 -0.211059001665 0.957974844979 -0.155842983601 0.959064202965 -0.138540368732 -0.063558880013 -0.198350924947
1.931344888000 -0.030319540580 -0.211311835610 0.958253477041 -0.155879376534 0.958868882463 -0.139712164254 -0.063259888667 -0.198375217153
1.932678000000 -0.029669088279 -0.211452198548 0.958343204142 -0.155305684404 0.959872549617 -0.138068988785 -0.063499266650 -0.198670492081
1.934011111000 -0.029800480746 -0.211276947283 0.958027353277 -0.155381909025 0.958971383155 -0.138977938447 -0.063324586242 -0.198340758395
1.935344222000 -0.029844498821 -0.211451157475 0.958630897919 -0.155673487414 0.959505377488 -0.138810289905 -0.063459364777 -0.198427920888
1.936677333000 -0.030022707102 -0.211435827791 0.957937357304 -0.156004218208 0.958859804459 -0.139852515549 -0.062878677009 -0.198361576665
1.938010444000 -0.029621103440 -0.211446335589 0.958284586896 -0.155430389950 0.959473963070 -0.138845461028 -0.063160604016 -0.198518442742
1.939343555000 -0.029534473422 -0.211609491075 0.958186542470 -0.156074136120 0.959341960842 -0.139128666804 -0.063009204986 -0.198678635249
1.940676666000 -0.029377611707 -0.211232551807 0.958006406851 -0.155279328071 0.959130569686 -0.139063703724 -0.062637616179 -0.198586864646
1.942009777000 -0.029098574212 -0.211324464217 0.957536218357 -0.154867939366 0.959302562547 -0.139499679434 -0.062839059639 -0.198169676507
1.943342888000 -0.029530014530 -0.211156653737 0.957356233526 -0.156601989051 0.958234161757 -0.138423057564 -0.062940618047 -0.198648843411
1.944676000000 -0.028898153550 -0.211444664399 0.958251419070 -0.156273411700 0.959021872898 -0.138288430590 -0.062736391848 -0.198756100008
1.946009111000 -0.028753176983 -0.211384250121 0.957811801529 -0.155473068396 0.959485028137 -0.138747844759 -0.062502885043 -0.198409779147
1.947342222000 -0.028814596422 -0.211707828291 0.957678204492 -0.155419350592 0.960086351035 -0.139299875512 -0.062579234736 -0.198504026878
1.948675333000 -0.028887618140 -0.211669248468 0.958294049335 -0.156474589614 0.958181192783 -0.139028297582 -0.062261506654 -0.199083836683
1.950008444000 -0.029114925473 -0.211034245729 0.956959121854 -0.156013179959 0.957562182293 -0.139107304238 -0.062255165662 -0.198656846585
1.951341555000 -0.028625748512 -0.211287739899 0.956095180272 -0.155494906155 0.959031155597 -0.138753675434 -0.062250950530 -0.198391339196
1.952674666000 -0.028869748723 -0.211158812903 0.957271288139 -0.156490873767 0.957176875914 -0.138040533962 -0.062060282261 -0.198924479009
1.954007777000 -0.028098966170 -0.211544785694 0.957394731754 -0.154230616288 0.959445327308 -0.139805793923 -0.061844663641 -0.198372380101
1.955340888000 -0.028915711642 -0.211919890663 0.956780533918 -0.157048343545 0.958069160126 -0.139462739466 -0.062306855547 -0.198808338431
1.956674000000 -0.027737532939 -0.211721022858 0.957575049509 -0.154746131886 0.959304538101 -0.138864750566 -0.061285754329 -0.199078529314
1.958007111000 -0.028605136346 -0.211377458488 0.957171968767 -0.155938419732 0.956919202532 -0.139277970238 -0.061700323721 -0.198663529365
1.959340222000 -0.028159169653 -0.211215842376 0.957511914513 -0.154157344434 0.957547993812 -0.139962000729 -0.061021698701 -0.198538885138
1.960673333000 -0.027917168823 -0.211975169397 0.957579356365 -0.155505625455 0.959170416596 -0.139588016321 -0.061429740694 -0.198912804369
1.962006444000 -0.028141873434 -0.212115639950 0.956465518566 -0.156026176676 0.959314910739 -0.139792222710 -0.061443662573 -0.199182372836
1.963339555000 -0.027498723268 -0.212656538149 0.958223839947 -0.156433296388 0.959014981424 -0.139971858348 -0.061326372282 -0.199641043933
1.964672666000 -0.027315725277 -0.212063262147 0.957378080226 -0.155636418818 0.958972187944 -0.139622355083 -0.060681019185 -0.199417742778
1.966005777000 -0.027235583127 -0.212162204884 0.957767724821 -0.156492704661 0.957604893465 -0.138954041814 -0.060616051927 -0.199294280290
1.967338888000 -0.027362454288 -0.212240623304 0.957625702497 -0.156410499939 0.957610482515 -0.139382081898 -0.060689145943 -0.199430045648
1.968672000000 -0.027168360089 -0.212359114500 0.957642445455 -0.157310572499 0.957834798045 -0.139454952813 -0.060911401371 -0.199773091555
1.970005111000 -0.027199747448 -0.212917604396 0.957690952906 -0.157255034513 0.958688353214 -0.139568355171 -0.060812572177 -0.199884660410
1.971338222000 -0.027222158316 -0.212983592250 0.958241243180 -0.157310447737 0.958003764717 -0.140936370292 -0.060794247321 -0.200449099278
1.972671333000 -0.027198628979 -0.212139162453 0.956582607127 -0.155549970080 0.958476634733 -0.140113047623 -0.059882590128 -0.199602036792
1.974004444000 -0.026817383129 -0.213233963243 0.957041461509 -0.157515990422 0.958907335937 -0.139654925708 -0.059945396034 -0.200190438713
1.975337555000 -0.026591836022 -0.213166978230 0.957719883192 -0.157491012334 0.958407840750 -0.139614255833 -0.059843156116 -0.200274102443
1.976670666000 -0.026469980178 -0.213512932770 0.957548772680 -0.158148421226 0.958891489924 -0.139973835104 -0.059926234437 -0.200505577709
1.978003777000 -0.026753477434 -0.212840285774 0.957084806762 -0.157153321068 0.957684882503 -0.139480187892 -0.059829529394 -0.199689399878
1.979336888000 -0.026266654971 -0.213648627221 0.957379430614 -0.157691121355 0.959112625238 -0.140682777986 -0.059344810665 -0.200928872310
1.980670000000 -0.025981668381 -0.214636239127 0.959040436143 -0.159073379152 0.958106338834 -0.142784493330 -0.060927366305 -0.202674654902
1.982003111000 -0.027203311745 -0.212870856785 0.956079006447 -0.156595184494 0.958705486194 -0.140536178163 -0.059588694557 -0.200352257361
1.983336222000 -0.026546797686 -0.213957573799 0.957389910646 -0.158488957471 0.959184628914 -0.141314085523 -0.059377641200 -0.201520581352
1.984669333000 -0.026078007489 -0.214110464357 0.957461369496 -0.159175095477 0.958854371658 -0.140644683449 -0.058767857993 -0.201251630180
1.986002444000 -0.026014562096 -0.214602518939 0.957535695046 -0.159638320516 0.958693355296 -0.140389996081 -0.059328003066 -0.201560350273
1.987335555000 -0.026736403744 -0.213383259863 0.957163112682 -0.157197350659 0.958749905685 -0.141183216980 -0.058800785457 -0.201511460623
1.988668666000 -0.025799363963 -0.213628421398 0.957969177010 -0.157747304277 0.958915210695 -0.140815252903 -0.058824977413 -0.201561079741
1.990001777000 -0.027072113113 -0.214074560850 0.956073058932 -0.158456921200 0.958497746769 -0.140402431337 -0.058556703704 -0.200762812764
1.991334888000 -0.026159717551 -0.214494939819 0.957687634338 -0.159590510459 0.958448730672 -0.141512547104 -0.058492132402 -0.202192571470
1.992668000000 -0.025996461740 -0.213521323187 0.958266679342 -0.157448383693 0.958549693902 -0.142009682226 -0.058544370476 -0.202886249264
1.994001111000 -0.026130376548 -0.214588467498 0.957570743756 -0.159471205661 0.958179484475 -0.142206093488 -0.058799466646 -0.202778064624
1.995334222000 -0.025639132577 -0.215178500673 0.957831610688 -0.160291468863 0.958011778840 -0.142587862011 -0.058642525859 -0.202890398637
1.996667333000 -0.025573804112 -0.215000186324 0.958040912987 -0.160008861188 0.958349326274 -0.142530087504 -0.058360930169 -0.203364717725
1.998000444000 -0.026054935655 -0.215099266608 0.957709171026 -0.160127576542 0.958762932833 -0.142332976227 -0.057410145807 -0.203315189040
1.999333555000 -0.025139225164 -0.216330840604 0.957624280768 -0.162029673844 0.957864899701 -0.142944134105 -0.058624696965 -0.203755918570
2.000666666000 -0.026357821832 -0.216546240943 0.956518638108 -0.162241566479 0.957531482813 -0.143240732312 -0.058402274356 -0.204477722950
2.001999777000 -0.025746049897 -0.215277329957 0.958097500831 -0.160373394243 0.958405949103 -0.143217557801 -0.057673876159 -0.203803507625
2.003332888000 -0.025936137633 -0.216358827194 0.957643731639 -0.162021555572 0.957796353689 -0.143239620391 -0.058237378790 -0.203590864827
2.004666000000 -0.025760618681 -0.217415915976 0.956877330099 -0.163279222722 0.957135987064 -0.144084076519 -0.058574635827 -0.204638298525
2.005999111000 -0.025507897286 -0.216869935805 0.957909362454 -0.162800739425 0.957492885148 -0.144169389915 -0.058590162333 -0.204393719139
2.007332222000 -0.026033965324 -0.218304746782 0.956782697431 -0.163472609648 0.956937714307 -0.143973219825 -0.058849474340 -0.204502728499
2.008665333000 -0.024723714046 -0.216114361820 0.959014830783 -0.162219779044 0.958390938550 -0.144196164826 -0.057536987662 -0.204766341260
2.009998444000 -0.025190601462 -0.217732288974 0.959115738694 -0.164075946664 0.958286191479 -0.144274950988 -0.056957535839 -0.204782646393
2.011331555000 -0.026103585378 -0.216908081846 0.957376084367 -0.162198676405 0.956844309672 -0.143838285531 -0.058594129431 -0.204683308970
2.012664666000 -0.024881106030 -0.216769405355 0.958539484150 -0.163069613683 0.957534981673 -0.143723668704 -0.058291928117 -0.205533886913
2.013997777000 -0.025938715812 -0.217755630341 0.957353468042 -0.163618471222 0.956870812723 -0.144439385131 -0.057704423391 -0.205277894344
2.015330888000 -0.026833886240 -0.217255351007 0.957406681511 -0.163022264624 0.956762501557 -0.144627092072 -0.057296897362 -0.206069436972
2.016664000000 -0.025708120111 -0.218134829834 0.957808416769 -0.163939984144 0.956649970313 -0.145146443239 -0.058445532503 -0.205994501661
2.017997111000 -0.024791349965 -0.218135272774 0.957727390948 -0.165076464171 0.956338689994 -0.145990094871 -0.058583656310 -0.206709596006
2.019330222000 -0.026281100224 -0.217380977677 0.958668267070 -0.163861667860 0.957632582127 -0.145234042158 -0.056273532795 -0.206157562353
2.020663333000 -0.026582992236 -0.217367836117 0.958337796075 -0.163882504143 0.957193668331 -0.145117754437 -0.056860366668 -0.206962254747
2.021996444000 -0.024813937851 -0.219278914814 0.958028056044 -0.164653618245 0.956977993611 -0.144672773777 -0.059253136250 -0.206605021295
2.023329555000 -0.026643425732 -0.218289521073 0.957368549236 -0.164276659386 0.955814346415 -0.145316456881 -0.058230167167 -0.207895068908
2.024662666000 -0.026254863878 -0.218204101705 0.958560381964 -0.165572217642 0.956457563279 -0.147253758853 -0.056066590016 -0.207793361792
2.025995777000 -0.025972550736 -0.219943099703 0.958422949728 -0.166387711806 0.956103698856 -0.146996551478 -0.056833908869 -0.207224375247
2.027328888000 -0.025232137611 -0.218444385830 0.958357986510 -0.166433839220 0.956385846856 -0.147163299867 -0.057191905093 -0.208588816473
2.028662000000 -0.025988954108 -0.219028205128 0.959050996859 -0.166498810572 0.956527903400 -0.147894933711 -0.056420532145 -0.208396486224
2.029995111000 -0.025108601663 -0.218290852684 0.957993973974 -0.166506193552 0.955641034215 -0.146452994233 -0.058030507704 -0.209323771559
2.031328222000 -0.024540828143 -0.219960552655 0.957945812949 -0.167331359103 0.955313757466 -0.147377300940 -0.058206241224 -0.209127709055
2.032661333000 -0.025897193268 -0.221188216550 0.957244514140 -0.167624302582 0.955577665033 -0.148216874209 -0.057143234825 -0.208515799811
2.033994444000 -0.025242907946 -0.220044269985 0.958232842871 -0.167458435217 0.955633377584 -0.147834486872 -0.057979632797 -0.209027056534
2.035327555000 -0.024446632176 -0.221004584469 0.957289327683 -0.167984991733 0.955053844844 -0.147286999949 -0.059313949655 -0.209228104893
2.036660666000 -0.025383835723 -0.220915830325 0.957847263521 -0.168608236979 0.955252492445 -0.148078326103 -0.057186829322 -0.209158457662
2.037993777000 -0.025393870126 -0.220453575461 0.957975939850 -0.169509262765 0.955336861858 -0.148561767532 -0.058537338718 -0.209309203589
2.039326888000 -0.026016097920 -0.222114416984 0.958235455753 -0.168187270119 0.955102105079 -0.147888922247 -0.057303568951 -0.208565949641
2.040660000000 -0.024177038510 -0.219954803657 0.959635475066 -0.169019026545 0.956276574352 -0.148170790450 -0.059355610706 -0.210076378408
2.041993111000 -0.027338175683 -0.221591458476 0.958940436508 -0.168296745892 0.955950074403 -0.148565646085 -0.057894520175 -0.209956200077
2.043326222000 -0.025247609395 -0.221763559334 0.958528937548 -0.169688385496 0.955385885944 -0.148676284699 -0.058405334745 -0.210210667205
2.044659333000 -0.025391762403 -0.220999836000 0.959429540361 -0.170462811684 0.955524155752 -0.149731619122 -0.058144771764 -0.210285463170
2.045992444000 -0.025100184519 -0.222381430839 0.958850806214 -0.169530083225 0.955407727626 -0.148514143400 -0.058427922697 -0.210539817656
2.047325555000 -0.025826024796 -0.222011186739 0.957856013688 -0.170187790236 0.953740194290 -0.150441383401 -0.057394186213 -0.210799735152
2.048658666000 -0.026266573288 -0.221852426811 0.958245564962 -0.169640879609 0.954042770427 -0.148884546477 -0.056985567662 -0.211579917774
2.049991777000 -0.025817398013 -0.222272444571 0.958390905230 -0.170643018304 0.954952681928 -0.149471839518 -0.057758239294 -0.211517105769
2.051324888000 -0.026576512191 -0.222402335473 0.959258803713 -0.170909236532 0.955169649657 -0.150508580254 -0.057894410159 -0.211030190006
2.052658000000 -0.026230161245 -0.222455783847 0.958813827613 -0.171111783249 0.953877249508 -0.149975270685 -0.057354917111 -0.211922339190
2.053991111000 -0.026706520362 -0.222726062463 0.958065483999 -0.171604829224 0.953118056458 -0.151570990844 -0.055600846527 -0.212082484995
2.055324222000 -0.025075184048 -0.222203215856 0.958586225524 -0.172328109885 0.953580473731 -0.150460967795 -0.058449888114 -0.211534295910
2.056657333000 -0.026208722847 -0.222882746087 0.958546551065 -0.171336855397 0.952970394189 -0.151211411081 -0.057702797087 -0.211768293731
2.057990444000 -0.026192978039 -0.224300182444 0.958998598031 -0.171627575805 0.954574772752 -0.151059708728 -0.057400586104 -0.211610010226
2.059323555000 -0.026022909540 -0.223985828490 0.959161856926 -0.171027575606 0.953492402918 -0.150293126235 -0.057266597290 -0.213071718792
2.060656666000 -0.024602269673 -0.223931437678 0.957211752700 -0.172199289633 0.953577417684 -0.150894199761 -0.058849347552 -0.211700878797
2.061989777000 -0.024974262574 -0.223180403501 0.959508385358 -0.172783442443 0.954966365595 -0.150579556114 -0.059508632486 -0.213341017617
2.063322888000 -0.025074196386 -0.223709215674 0.958857288630 -0.174281410045 0.954403856080 -0.152455076971 -0.059568467884 -0.212482061280
2.064656000000 -0.024581629915 -0.224995367760 0.958080612112 -0.173358652541 0.953731502949 -0.151944163852 -0.058489249478 -0.212262439298
2.065989111000 -0.025999157076 -0.224611505334 0.959905843870 -0.173936247586 0.953866832720 -0.152482270646 -0.058524923348 -0.212560154384
2.067322222000 -0.025445182321 -0.224659397597 0.959153791220 -0.173498325887 0.953443693715 -0.152588654893 -0.058344702497 -0.212355353203
2.068655333000 -0.026163907518 -0.223888098045 0.959763329022 -0.174600311421 0.953213314002 -0.153587776669 -0.057798509915 -0.212208094560
2.069988444000 -0.024492382146 -0.225129970526 0.958454050336 -0.173964513156 0.952665745757 -0.153003867070 -0.057952854722 -0.212378492552
2.071321555000 -0.025284723213 -0.224513871948 0.959597823116 -0.174437312427 0.952978194382 -0.152263287005 -0.058098392027 -0.213740006387
2.072654666000 -0.025549825195 -0.225475435998 0.959783401449 -0.174921712625 0.953051473488 -0.152649256496 -0.058534039144 -0.213136989567
2.073987777000 -0.025543289328 -0.225116829553 0.958665200062 -0.174316253977 0.953426392827 -0.153120337636 -0.058902963529 -0.213993267290
2.075320888000 -0.025326248724 -0.225438718955 0.958803325677 -0.174610146667 0.953193768733 -0.153696042800 -0.058603114762 -0.212979536408
2.076654000000 -0.025116544500 -0.225995226141 0.958550133437 -0.175141065642 0.953174856999 -0.153811284777 -0.058377953070 -0.213518535443
2.077987111000 -0.025011345042 -0.226040552617 0.960785973505 -0.175825275040 0.952213970214 -0.153174054264 -0.058234740404 -0.214159641612
2.079320222000 -0.024466417814 -0.225824110537 0.959541621777 -0.175326342558 0.953755333393 -0.153845427948 -0.058802956053 -0.213636755119
2.080653333000 -0.025141571490 -0.226249608221 0.958778525052 -0.174537630860 0.952695305315 -0.154876664428 -0.058143103530 -0.213539981276
2.081986444000 -0.025037860156 -0.226191910562 0.959433102294 -0.176142942168 0.953238583476 -0.155061101437 -0.059508158177 -0.213891352495
2.083319555000 -0.025521114640 -0.226031102493 0.959440254274 -0.176770700935 0.953451307291 -0.154641511789 -0.059568014679 -0.214111635621
2.084652666000 -0.024370648536 -0.226246177971 0.959265817199 -0.176922078696 0.951967183976 -0.154248256571 -0.058843108159 -0.213750756314
2.085985777000 -0.025113274795 -0.226783103282 0.959200116967 -0.176065457763 0.953382585221 -0.155734998227 -0.059108261423 -0.214089535426
2.087318888000 -0.025624662134 -0.227279047306 0.959839280956 -0.176249868677 0.953564589571 -0.156150973772 -0.059512913939 -0.214750522284
2.088652000000 -0.024938072364 -0.227005178276 0.960224346535 -0.176968441040 0.952795213288 -0.155624710645 -0.059041638566 -0.214639821277
2.089985111000 -0.025492791649 -0.226921351072 0.960324869138 -0.178063913966 0.953884075246 -0.156522617766 -0.060131256811 -0.214806046204
2.091318222000 -0.024779205173 -0.227223204744 0.959611739200 -0.177374738228 0.953270174593 -0.155814408724 -0.059656027156 -0.214319350737
2.092651333000 -0.025298175539 -0.227722402317 0.960008750554 -0.177339859522 0.953875061048 -0.156476701339 -0.059236537667 -0.215456173398
2.093984444000 -0.025226412273 -0.226920049822 0.959155137700 -0.178704219828 0.953472304026 -0.156196428882 -0.059645803968 -0.214125274795
2.095317555000 -0.025125677411 -0.227028049607 0.959621177269 -0.177473186877 0.953092355808 -0.156527855219 -0.059098991199 -0.214728152107
2.096650666000 -0.025203459502 -0.227263732868 0.959506169883 -0.179436779355 0.953887062253 -0.157344224566 -0.060123714792 -0.214434613608
2.097983777000 -0.025003936315 -0.227923662710 0.959334371863 -0.178271548546 0.954123943149 -0.157542610878 -0.059431547592 -0.214799579657
2.099316888000 -0.025036905636 -0.228033660288 0.959190570301 -0.178616830736 0.954163667876 -0.156954848394 -0.059154234205 -0.214780902890
2.100650000000 -0.026567841454 -0.227661001165 0.960039293677 -0.178842032867 0.953933473191 -0.158958386211 -0.060708227354 -0.216219850262
2.101983111000 -0.024954299512 -0.227387954799 0.959032433878 -0.178742499933 0.953552757895 -0.158089655539 -0.059194526264 -0.215076634162
2.103316222000 -0.025070447871 -0.228076500252 0.959998901913 -0.179586263985 0.954073617024 -0.157041208496 -0.059642317325 -0.214808269359
2.104649333000 -0.025169167043 -0.228561821826 0.960719347707 -0.179747934076 0.953666596073 -0.157411284610 -0.059953455394 -0.214742513354
2.105982444000 -0.025375146590 -0.228061696698 0.959747690911 -0.180393639396 0.953927844012 -0.158122443733 -0.059853986774 -0.215067290567
2.107315555000 -0.025101271083 -0.228434476355 0.960355908147 -0.180242410064 0.953432040202 -0.158955095946 -0.060093487980 -0.215691877699
2.108648666000 -0.025528089684 -0.228065267662 0.959564767824 -0.180537380161 0.953615210979 -0.159369879237 -0.060124658007 -0.215745655605
2.109981777000 -0.025947704994 -0.229112123513 0.960636115619 -0.181127880376 0.955103275593 -0.158841801889 -0.059657149248 -0.216106250137
2.111314888000 -0.025469513818 -0.228898451871 0.960345094249 -0.181164195607 0.954995118458 -0.158315254235 -0.060085951971 -0.215126785240
2.112648000000 -0.026380638362 -0.228170899458 0.958903965496 -0.181490164665 0.955359529739 -0.160386215427 -0.059945018256 -0.215609916932
2.113981111000 -0.025365409620 -0.228677188130 0.959685614293 -0.181122396682 0.954564206650 -0.160009209332 -0.059950140138 -0.215303834868
2.115314222000 -0.025989338872 -0.228342413891 0.959978424295 -0.181577825725 0.954049252086 -0.158434137078 -0.060336052392 -0.215182553168
2.116647333000 -0.025994225484 -0.228041334670 0.959676595647 -0.182169919557 0.954860658937 -0.159859622876 -0.059871849500 -0.215750158790
2.117980444000 -0.026728109456 -0.229041873237 0.959421708103 -0.182659180059 0.956695148952 -0.158853200838 -0.059345317403 -0.214805505744
2.119313555000 -0.025589123560 -0.229197531320 0.961479727902 -0.181792291407 0.955572105977 -0.160431657215 -0.060489209178 -0.216192946601
2.120646666000 -0.026320354188 -0.228590387450 0.960175824226 -0.182919398391 0.955563859829 -0.159781388267 -0.060812840016 -0.214832241454
2.121979777000 -0.025657564024 -0.229219517619 0.961363386928 -0.183071089804 0.953774084854 -0.160083968257 -0.062050077105 -0.215546201399
2.123312888000 -0.026588180393 -0.229545376619 0.960932586123 -0.183426039980 0.954798075472 -0.160079142682 -0.062113734867 -0.215285031393
2.124646000000 -0.026075629217 -0.229256417977 0.960890895814 -0.183369552800 0.954524908951 -0.158510388600 -0.062163423930 -0.214108662227
2.125979111000 -0.027361748580 -0.228697724076 0.960346340188 -0.183721944680 0.955565934620 -0.160135518879 -0.061128360539 -0.214137762998
2.127312222000 -0.027679534962 -0.228988448410 0.960524342954 -0.183635163634 0.956569441496 -0.160603808411 -0.061177770322 -0.214867206682
2.128645333000 -0.027420849188 -0.229064213728 0.960839389412 -0.184403898271 0.956629098499 -0.160997543548 -0.060995130066 -0.214669075842
2.129978444000 -0.027467699013 -0.228960906364 0.960826303727 -0.184080941023 0.955811754652 -0.160506735631 -0.061547481707 -0.214408397661
2.131311555000 -0.028589156383 -0.229683027713 0.960524369027 -0.184859369136 0.956773202455 -0.160193373122 -0.061683989889 -0.214225773603
2.132644666000 -0.027572775867 -0.229816874925 0.960517189370 -0.184765241598 0.955836708727 -0.160420470763 -0.062253031468 -0.214825448912
2.133977777000 -0.029187589940 -0.229827609052 0.960782629467 -0.184910017168 0.958659017452 -0.159930665829 -0.060845658633 -0.213674008822
2.135310888000 -0.028222535351 -0.229162724683 0.961348865001 -0.185698832572 0.956862602065 -0.161544353087 -0.062179554300 -0.214040545690
2.136644000000 -0.028657798476 -0.228608951008 0.961204402839 -0.185146601374 0.958027790010 -0.163054563280 -0.061983100663 -0.215170561826
2.137977111000 -0.029763511969 -0.228765364638 0.960661902452 -0.185200354618 0.958138615898 -0.162248972300 -0.061480162995 -0.214539792382
2.139310222000 -0.029470627511 -0.229091215740 0.960755104266 -0.185294234679 0.957602700571 -0.161942985135 -0.062542456245 -0.214385090859
2.140643333000 -0.029696844061 -0.230119062974 0.961043875453 -0.186167532823 0.958108679903 -0.161431048457 -0.062587701353 -0.213554780308
2.141976444000 -0.030599924357 -0.229522113074 0.960946939691 -0.186073187527 0.959775106978 -0.162690144504 -0.061343109864 -0.214089788491
2.143309555000 -0.031127847664 -0.228723574026 0.960579107215 -0.186617495496 0.959169834857 -0.162640387512 -0.061348654617 -0.214144900722
2.144642666000 -0.032267522411 -0.229329192522 0.960821355980 -0.186994349069 0.958991903226 -0.161933282667 -0.062307736834 -0.213679338823
2.145975777000 -0.031695440351 -0.228575652851 0.961286750646 -0.187843098744 0.960327097744 -0.163426573402 -0.061522259886 -0.213671493891
2.147308888000 -0.031614525389 -0.229065788058 0.960888045416 -0.187809880930 0.959641072451 -0.163211568573 -0.062500985868 -0.213067072177
2.148642000000 -0.032417084029 -0.229057954032 0.960956354623 -0.188136824164 0.959859428390 -0.163060760771 -0.062362847109 -0.212801605489
2.149975111000 -0.032509291031 -0.228564698448 0.960648580220 -0.188685249289 0.959602262250 -0.163653939935 -0.061891243822 -0.213206941961
2.151308222000 -0.031280257921 -0.227502952872 0.961515018752 -0.188778688020 0.958523627698 -0.164679373394 -0.063823904580 -0.213478420059
2.152641333000 -0.031615985487 -0.228327889676 0.961363422660 -0.189246470027 0.960093711117 -0.164268202024 -0.062701173849 -0.212078491749
2.153974444000 -0.033066775733 -0.228253199499 0.961121594532 -0.189710281249 0.960937461604 -0.164225345167 -0.062687710249 -0.212035399639
2.155307555000 -0.032889538944 -0.226911462882 0.960888184531 -0.189211978343 0.959390935461 -0.165817451533 -0.063385739863 -0.213337117284
2.156640666000 -0.033996042253 -0.229688841709 0.960148015963 -0.189938612883 0.961331165566 -0.164731764888 -0.062620902572 -0.211111650209
2.157973777000 -0.034024099750 -0.228381903248 0.960925869062 -0.190212958779 0.961238059846 -0.165372071387 -0.063315205530 -0.211467240594
2.159306888000 -0.034300525662 -0.227060606812 0.961955592784 -0.191172088603 0.961644918522 -0.167130974498 -0.063692542604 -0.211259530903
2.160640000000 -0.034036959659 -0.228368393248 0.961366953573 -0.191426211374 0.963259601549 -0.166334290520 -0.063259195930 -0.210283357322
2.161973111000 -0.033608812864 -0.227948178330 0.960380266708 -0.191533743578 0.961538018076 -0.166472701342 -0.063566554439 -0.210804533767
2.163306222000 -0.033315303214 -0.227761540226 0.959526103573 -0.191984425849 0.960955448372 -0.166811084562 -0.063546336957 -0.211232805953
2.164639333000 -0.033201515745 -0.229164571409 0.959725393726 -0.191725169126 0.961056452054 -0.166318723112 -0.063562491118 -0.209913633202
2.165972444000 -0.034128771687 -0.226830961697 0.961625774423 -0.191335837253 0.961871541320 -0.167917774013 -0.065154431005 -0.210769576237
2.167305555000 -0.035454171097 -0.226529889396 0.962052435766 -0.191985816487 0.962205610968 -0.167071723564 -0.064325482570 -0.210568202552
2.168638666000 -0.035007499611 -0.227144364067 0.960674677992 -0.193301879183 0.962263054397 -0.167682161777 -0.063702215954 -0.209505424188
2.169971777000 -0.035062100990 -0.226435928103 0.961752970703 -0.192961226375 0.961881152694 -0.167460235510 -0.063270136749 -0.209919530309
2.171304888000 -0.035459635963 -0.227039773110 0.961263641902 -0.192867227521 0.962086063250 -0.168867238178 -0.064175618620 -0.209464557858
2.172638000000 -0.035680539196 -0.226810192581 0.960288013569 -0.192184943006 0.961864588452 -0.168210334958 -0.065048495991 -0.208921963455
2.173971111000 -0.035668775481 -0.226603664382 0.960547025106 -0.194208483323 0.961743879860 -0.170086533335 -0.064335744801 -0.207877382950
2.175304222000 -0.035461378207 -0.226649602012 0.959855237386 -0.193026693201 0.962240685151 -0.168884985124 -0.064825368598 -0.209818477871
2.176637333000 -0.036530640674 -0.227598055572 0.960137753356 -0.191380597731 0.962207223333 -0.168612923804 -0.065133419741 -0.210243625533
2.177970444000 -0.038229998633 -0.225929171542 0.963505762332 -0.192912428917 0.962912998427 -0.169848107571 -0.065487164761 -0.208248391953
2.179303555000 -0.036414746797 -0.226409584277 0.960150583164 -0.193520055042 0.962726712836 -0.168622654295 -0.065191582888 -0.210096019754
2.180636666000 -0.036353275138 -0.227101300470 0.959525274103 -0.192576501805 0.962323368753 -0.168616348009 -0.065291140472 -0.209092718007
2.181969777000 -0.037232545820 -0.226870382312 0.959380424168 -0.191907695355 0.961496501953 -0.169555352976 -0.064919866498 -0.209019405665
2.183302888000 -0.036868173443 -0.225087219376 0.959689083203 -0.195919603885 0.962707441657 -0.171206108112 -0.065855306439 -0.207302002578
2.184636000000 -0.037364403720 -0.227037662275 0.959834151426 -0.194103523131 0.962864502096 -0.170950698897 -0.065663691696 -0.207604984368
2.185969111000 -0.036945841043 -0.226972670331 0.959928976646 -0.191560572665 0.962504004446 -0.170894102039 -0.065728267264 -0.207801948142
2.187302222000 -0.037158861249 -0.226720811697 0.959856850332 -0.193299719907 0.964907002532 -0.170290141655 -0.066799840324 -0.207413930511
2.188635333000 -0.037341706267 -0.227018379349 0.958569330990 -0.190961006836 0.962038980775 -0.171870506525 -0.064763305031 -0.207062998378
2.189968444000 -0.037825766295 -0.226308671177 0.959302314649 -0.193785988780 0.963356396030 -0.171622645749 -0.066503155335 -0.206500177572
2.191301555000 -0.037007587817 -0.226090572750 0.959249138418 -0.193616528954 0.961350102821 -0.169939919997 -0.065617911714 -0.207695321277
2.192634666000 -0.037609338811 -0.226187644004 0.958512023936 -0.193165275774 0.962551814558 -0.171689387638 -0.065895357631 -0.206960072464
2.193967777000 -0.037041825153 -0.226200811273 0.957405551675 -0.193700117315 0.961676179779 -0.171435471365 -0.065906543038 -0.206811119426
2.195300888000 -0.037274966500 -0.226323018993 0.957968524758 -0.193397652882 0.961622317776 -0.171028074037 -0.065848353237 -0.206861440439
2.196634000000 -0.037852653278 -0.226201012895 0.959122206636 -0.193812323034 0.962616832939 -0.171655679844 -0.066577655858 -0.207071315789
2.197967111000 -0.038206097479 -0.226487479965 0.959932162482 -0.193061398581 0.962475496518 -0.171619786562 -0.066569376113 -0.207414141817
2.199300222000 -0.037540747958 -0.226368699206 0.959032338875 -0.191560705986 0.960717318983 -0.170996519095 -0.066012186169 -0.207147434072
2.200633333000 -0.037717666811 -0.226431031466 0.958742946125 -0.194276645408 0.962513036505 -0.171599278267 -0.066693830302 -0.207219302889
2.201966444000 -0.037739075882 -0.225819596328 0.957636406393 -0.194478386141 0.960965935604 -0.172229780771 -0.066655097030 -0.206853755986
2.203299555000 -0.037726635479 -0.226340304913 0.957589691905 -0.192829208881 0.960861528323 -0.173397125714 -0.066867053776 -0.206778528693
2.204632666000 -0.037435596554 -0.225846682691 0.956485476408 -0.194491299554 0.961047603317 -0.172202729642 -0.066796620219 -0.206786074805
2.205965777000 -0.037453539962 -0.226463280523 0.957177866369 -0.193718777606 0.960846018833 -0.171593660894 -0.066775217719 -0.207166546515
2.207298888000 -0.037343988340 -0.226430672220 0.956631922422 -0.193552074965 0.960683580432 -0.171069987243 -0.066442235656 -0.207158716213
2.208632000000 -0.037724330826 -0.226461276634 0.957436588232 -0.193338747050 0.960718819888 -0.172318912168 -0.066967604701 -0.207542143152
2.209965111000 -0.037864834997 -0.226606343894 0.957212755748 -0.193839722184 0.960924804690 -0.172355305445 -0.066753883732 -0.207592840492
2.211298222000 -0.037523579775 -0.226471906127 0.956148300722 -0.192297411212 0.959243744928 -0.172183422525 -0.066408987200 -0.207426055018
2.212631333000 -0.037566053602 -0.226602993798 0.955934608337 -0.193695294392 0.960096876164 -0.172434197314 -0.066531376380 -0.207285945948
2.213964444000 -0.037467002734 -0.227227375488 0.956187800360 -0.192323868726 0.960912502970 -0.172753663983 -0.066113874534 -0.207961511497
2.215297555000 -0.037295098827 -0.227116452024 0.956349746080 -0.193264566912 0.960446051279 -0.171730375544 -0.066394847603 -0.207624358365
2.216630666000 -0.037359697955 -0.226722500148 0.955015217850 -0.194931525737 0.960116126030 -0.171893144652 -0.066922512276 -0.207302319531
2.217963777000 -0.037424309137 -0.226761178448 0.955796794248 -0.193933739001 0.959279098287 -0.172759523529 -0.066407623657 -0.207805875691
2.219296888000 -0.037858601746 -0.227043053899 0.955301328882 -0.194128257952 0.960142734812 -0.174183729031 -0.066151162263 -0.208135068182
2.220630000000 -0.037674766615 -0.227472556878 0.956281598029 -0.194767676641 0.959992349037 -0.173402826469 -0.066333688720 -0.208103746554
2.221963111000 -0.037651623229 -0.227459996885 0.954936050982 -0.192972913341 0.960638763178 -0.175032756284 -0.066303163508 -0.208260068020
2.223296222000 -0.037296002422 -0.227073343475 0.954730156453 -0.193270902749 0.960091381953 -0.173537178650 -0.065985145177 -0.208329158843
2.224629333000 -0.037364909432 -0.227210094862 0.955343558275 -0.195119999318 0.958411941949 -0.171712857631 -0.066688702152 -0.207652517665
2.225962444000 -0.036954991142 -0.227656101024 0.955073362558 -0.193327108227 0.960384009794 -0.172641136178 -0.065570999992 -0.208017022014
2.227295555000 -0.037572389596 -0.227780765825 0.954355659688 -0.194291806374 0.959364688201 -0.172784674798 -0.066231659030 -0.207925627159
2.228628666000 -0.037422481011 -0.227437201100 0.954330798785 -0.193982970415 0.958603849958 -0.173997428744 -0.066202952892 -0.208139045864
2.229961777000 -0.037111710905 -0.227833585704 0.955104988195 -0.194551496645 0.958412449358 -0.173729999217 -0.066390762545 -0.208619035872
2.231294888000 -0.037027229663 -0.227916255430 0.954784997367 -0.194236749972 0.959205856591 -0.172731728903 -0.065529454456 -0.207901197898
2.232628000000 -0.036700264604 -0.228301257441 0.954553610438 -0.194782691432 0.959974821938 -0.172797880242 -0.065263875941 -0.208235004462
2.233961111000 -0.037132899711 -0.228361763172 0.954352750944 -0.195231332136 0.959059359122 -0.174226359129 -0.065495775666 -0.208581519593
2.235294222000 -0.037034874144 -0.228389002044 0.954345982933 -0.194865912429 0.958882238011 -0.173318511977 -0.065274873801 -0.208643799124
2.236627333000 -0.037348392329 -0.228587503676 0.954297849560 -0.195111520839 0.956897560900 -0.173192903917 -0.066263722505 -0.208728098050
2.237960444000 -0.036503859622 -0.228561310883 0.954240800165 -0.194646286149 0.958927771773 -0.173867969609 -0.064867711454 -0.208704681787
2.239293555000 -0.036689366940 -0.228719942849 0.954485287066 -0.194695492467 0.957085113673 -0.174523676316 -0.065693620155 -0.209274752699
2.240626666000 -0.036465593430 -0.229031646486 0.954054570957 -0.194869424906 0.956964595076 -0.172783472990 -0.066259491296 -0.208820181054
2.241959777000 -0.036656518868 -0.228620482241 0.953851790493 -0.194782322820 0.956332949555 -0.173052194545 -0.066241665913 -0.209116984294
2.243292888000 -0.036584602572 -0.229740802800 0.954391184989 -0.195520862962 0.958419868861 -0.174783574988 -0.065032660826 -0.209234930878
2.244626000000 -0.036741584628 -0.229581329975 0.954003263145 -0.195409563878 0.956787941848 -0.174447711244 -0.065467654373 -0.209630388830
2.245959111000 -0.035947105712 -0.229472653262 0.954280520226 -0.195431223553 0.957684261746 -0.173943847921 -0.064683333144 -0.209712212904
2.247292222000 -0.036319879884 -0.229983370868 0.954164286068 -0.195584084833 0.957958357338 -0.173840086435 -0.064850199501 -0.208977629392
2.248625333000 -0.035899116512 -0.230418866947 0.953795682134 -0.195831406311 0.956717549811 -0.173990094770 -0.064738687932 -0.209518843456
2.249958444000 -0.036332260844 -0.230192911588 0.953641189783 -0.196267641491 0.955891499986 -0.174353581892 -0.065647127888 -0.209925934638
2.251291555000 -0.036303058673 -0.229557320362 0.954165390432 -0.195722842170 0.957394337686 -0.174137307476 -0.064685684592 -0.209820586767
2.252624666000 -0.036197201146 -0.230508871526 0.954313138340 -0.195848156439 0.956723396731 -0.173306331063 -0.065006640670 -0.209874511381
2.253957777000 -0.035253499389 -0.230288165370 0.954059516968 -0.196252056287 0.956194685124 -0.173371218686 -0.065490241296 -0.209843624284
2.255290888000 -0.035950580411 -0.230814142854 0.953528427115 -0.196806369597 0.956379325345 -0.175219591913 -0.064615499494 -0.210613053030
2.256624000000 -0.034937321237 -0.230661951726 0.953991412907 -0.197030732354 0.955461769930 -0.174424676143 -0.065707504163 -0.210731072351
2.257957111000 -0.036307112420 -0.230951193324 0.953997254946 -0.197004858026 0.956881115814 -0.175220513485 -0.064039830825 -0.210782223814
2.259290222000 -0.035751306043 -0.231371083319 0.954279731832 -0.197163561928 0.956212006832 -0.175237902532 -0.064073167057 -0.210967253716
2.260623333000 -0.035158393490 -0.231083826775 0.954171054302 -0.197994866900 0.955380806719 -0.175690280580 -0.064898781136 -0.211928325212
2.261956444000 -0.034955136761 -0.231102766012 0.953721197627 -0.197451824165 0.955339252463 -0.175407896861 -0.064989694997 -0.211275407985
2.263289555000 -0.034198604322 -0.231486012556 0.952788607662 -0.197788026896 0.954189052735 -0.173955890195 -0.066067232928 -0.210848887788
2.264622666000 -0.035065166207 -0.232143333931 0.954051435718 -0.197785328015 0.955944649235 -0.174371878342 -0.064525814282 -0.210161153904
2.265955777000 -0.035668909944 -0.231827679981 0.952986149493 -0.197938732424 0.954812338960 -0.175067746776 -0.064655848066 -0.211866794636
2.267288888000 -0.035509702475 -0.230523617902 0.955827853983 -0.198266505760 0.955376221835 -0.175091215026 -0.064505092097 -0.213578133740
2.268622000000 -0.034546045129 -0.232069493676 0.954498876012 -0.198979750661 0.954887980307 -0.174914201308 -0.065332943701 -0.212110906819
2.269955111000 -0.034408404467 -0.231720501588 0.954704843193 -0.199490861265 0.954779554282 -0.175773744157 -0.064807148624 -0.212595008497
2.271288222000 -0.034123944517 -0.231758771978 0.954386820607 -0.199714429710 0.954113210474 -0.175735113371 -0.065327312394 -0.213149081871
2.272621333000 -0.034112531391 -0.232412616847 0.953423486984 -0.199300236909 0.953713723224 -0.175653578141 -0.064961419732 -0.212800764814
2.273954444000 -0.033913905993 -0.232019663078 0.954572754587 -0.199381104346 0.953545239688 -0.175874645614 -0.064869593739 -0.213834662884
2.275287555000 -0.034302439090 -0.232578691503 0.953846149365 -0.200038170026 0.954122132934 -0.175922803495 -0.064155399703 -0.212976454949
2.276620666000 -0.034184602145 -0.232607734278 0.953851340823 -0.199885408545 0.953615178240 -0.176140921134 -0.064285838442 -0.213775976126
2.277953777000 -0.033795025094 -0.233330464151 0.953577222599 -0.201188900204 0.953338682809 -0.176313510164 -0.065230970359 -0.213164460723
2.279286888000 -0.033950675465 -0.233284658721 0.954183952927 -0.200818227056 0.952879014836 -0.176600622753 -0.065255850311 -0.214094184861
2.280620000000 -0.033786293650 -0.233233716481 0.953680737328 -0.200501802027 0.953343185839 -0.176363574462 -0.064139653210 -0.214264043078
2.281953111000 -0.034171367137 -0.233808975122 0.952703427791 -0.201174972151 0.952711429243 -0.176280556918 -0.064555180958 -0.214238995426
2.283286222000 -0.033373589335 -0.233651750035 0.954462885056 -0.200762756079 0.952796317043 -0.176341724930 -0.065110261263 -0.214902900179
2.284619333000 -0.034057375562 -0.233743684718 0.954236377719 -0.201012780520 0.952440501560 -0.176586188338 -0.064560494324 -0.215214573031
2.285952444000 -0.033285241606 -0.234438788740 0.953578106737 -0.201510758925 0.952629840163 -0.176770521253 -0.065069793285 -0.213914094880
2.287285555000 -0.034546426543 -0.233700611216 0.954800109909 -0.200973735395 0.952691723886 -0.176904936950 -0.064486338142 -0.215598164478
2.288618666000 -0.033744665083 -0.235025706114 0.954340332613 -0.200382672670 0.951787632578 -0.176533313231 -0.064754751303 -0.215425581952
2.289951777000 -0.034005092558 -0.234510017988 0.955198626160 -0.200566767003 0.952300335928 -0.176979823640 -0.064427690424 -0.215952258223
2.291284888000 -0.034387128375 -0.234244756834 0.955828851036 -0.200721946157 0.951888385911 -0.177041333242 -0.064098865890 -0.216905253491
2.292618000000 -0.032720457536 -0.234327832234 0.953700157071 -0.203743672076 0.951633931547 -0.177457039032 -0.066308691284 -0.216049477109
2.293951111000 -0.032504051775 -0.233849649405 0.955218657974 -0.205747437518 0.951695364746 -0.178245635916 -0.066110642743 -0.216174847839
2.295284222000 -0.033594017990 -0.233700831032 0.955347015100 -0.204686351292 0.951718049704 -0.177932172358 -0.065478515990 -0.216790315384
2.296617333000 -0.033359533160 -0.234848965259 0.954718355161 -0.203387688604 0.950989310871 -0.177859963524 -0.063832324899 -0.217368475480
2.297950444000 -0.033426140811 -0.236007509711 0.954196193764 -0.202576882735 0.951545968723 -0.177968620733 -0.064999064407 -0.217755551214
2.299283555000 -0.033325685881 -0.235347315987 0.954838362609 -0.203222414441 0.950831442817 -0.178243440943 -0.064627930605 -0.217563110333
2.300616666000 -0.032865789333 -0.235755423332 0.954955626627 -0.205206365868 0.950675735379 -0.178778256522 -0.065610231393 -0.217005346519
2.301949777000 -0.033426083352 -0.235795428184 0.954150733557 -0.204728483359 0.951542614987 -0.179503764117 -0.065489744353 -0.217830943668
2.303282888000 -0.033239229193 -0.235717230516 0.954447162572 -0.205403612129 0.950414244807 -0.178912474769 -0.065463568268 -0.217353620568
2.304616000000 -0.033348327503 -0.236779689404 0.954694318451 -0.204291097764 0.950312591828 -0.178666593559 -0.064579824927 -0.218214717787
2.305949111000 -0.032806325468 -0.236210848560 0.955395777210 -0.204303042920 0.950475246706 -0.179080478881 -0.064555574456 -0.218951004476
2.307282222000 -0.033605379883 -0.237189627497 0.954100151775 -0.203999405895 0.950166006794 -0.179369971201 -0.064223966909 -0.218080766978
2.308615333000 -0.032959088840 -0.237134418133 0.954938734201 -0.205291959100 0.949879536774 -0.178344168340 -0.064702917043 -0.218634067472
2.309948444000 -0.032739659384 -0.237047529774 0.954756837906 -0.206706970970 0.949313622736 -0.180780377413 -0.065419766464 -0.218351854695
2.311281555000 -0.032994130644 -0.236293691373 0.957495146542 -0.205356969179 0.949807798419 -0.179337346525 -0.065293294054 -0.219904283365
2.312614666000 -0.032943796116 -0.237175244827 0.955373499642 -0.206742190283 0.949714310882 -0.179755306213 -0.065478743233 -0.219155690617
2.313947777000 -0.033113290583 -0.237636840023 0.953850736539 -0.207303967976 0.949962067904 -0.180327622731 -0.064901636626 -0.218556768188
2.315280888000 -0.033521361463 -0.237438500038 0.956114465239 -0.205237060981 0.949452292866 -0.180407147556 -0.064416014967 -0.220404427589
2.316614000000 -0.033009579479 -0.237635817548 0.954694670620 -0.207752094587 0.948852534570 -0.180279093395 -0.064901117441 -0.219242065749
2.317947111000 -0.032575279179 -0.237293814711 0.957084561012 -0.208556178303 0.949103467720 -0.180225432984 -0.066068725208 -0.220284474731
2.319280222000 -0.032115926292 -0.238738247643 0.953790384984 -0.208885192779 0.948495302639 -0.180141672947 -0.065172000951 -0.218912206211
2.320613333000 -0.032638960427 -0.237881949761 0.954835367124 -0.208006012487 0.947948948386 -0.180207132763 -0.065068448270 -0.220158007782
2.321946444000 -0.032232090809 -0.237421933030 0.955913557651 -0.209730354347 0.948332866824 -0.180879079647 -0.066197236230 -0.220242274397
2.323279555000 -0.031742058701 -0.236926640995 0.955418192614 -0.210686773736 0.947095532333 -0.180394239828 -0.066868343505 -0.220066415979
2.324612666000 -0.032472556656 -0.237770088955 0.954835445629 -0.209296289045 0.946569691287 -0.180688791287 -0.065720823421 -0.220899292334
2.325945777000 -0.031995058514 -0.238402752471 0.954677476026 -0.211095863179 0.947798438680 -0.181612518399 -0.066163454224 -0.219650960203
2.327278888000 -0.032549024477 -0.238486055102 0.955113885509 -0.209316253030 0.947149384971 -0.180581719400 -0.065746575727 -0.220994316543
2.328612000000 -0.032822403825 -0.238334523751 0.955565813851 -0.212247251111 0.947754881535 -0.182193597313 -0.066362850408 -0.220760700840
2.329945111000 -0.032733785299 -0.238969518113 0.955749919078 -0.210403428017 0.947551676691 -0.180735731328 -0.065692766362 -0.221302833885
2.331278222000 -0.032411685013 -0.239445231070 0.954961017895 -0.210244184966 0.946986472633 -0.181266736334 -0.065161833653 -0.221384745836
2.332611333000 -0.032409479819 -0.239310932106 0.954874352725 -0.211853059290 0.946687715350 -0.182003764790 -0.065508417425 -0.221025531860
2.333944444000 -0.031591897521 -0.240458489987 0.953149986519 -0.211392863845 0.947678946568 -0.182140566403 -0.065918651170 -0.220525199700
2.335277555000 -0.032724341160 -0.238875430089 0.956006482370 -0.211629839005 0.946120188056 -0.182595651298 -0.066267001328 -0.221991616294
2.336610666000 -0.032489316760 -0.239723165551 0.956057075951 -0.211754764850 0.946019536749 -0.182625357590 -0.066494594455 -0.222572553953
2.337943777000 -0.031876056639 -0.239517077016 0.955509742546 -0.212710777280 0.945561532641 -0.182344123146 -0.066822164463 -0.222238114825
2.339276888000 -0.033361569228 -0.240761265721 0.954972632779 -0.213116946362 0.949250486586 -0.183796016716 -0.065713084916 -0.222129655535
2.340610000000 -0.033176240056 -0.241286556070 0.955260032156 -0.211442528033 0.948281576429 -0.183320530422 -0.065216490318 -0.222470945437
2.341943111000 -0.033333479603 -0.240491774707 0.954489084741 -0.213717126931 0.947801722849 -0.184390043242 -0.065495543966 -0.222142266549
2.343276222000 -0.031220980624 -0.240518683210 0.956514826363 -0.214669466794 0.945741170312 -0.181788486273 -0.068380991231 -0.222781246527
2.344609333000 -0.032599866779 -0.239927406719 0.954900325082 -0.213886974542 0.945017351695 -0.185633507476 -0.066639170856 -0.224051892736
2.345942444000 -0.031960671130 -0.240744205635 0.955871372506 -0.213764885024 0.945772887184 -0.183054579085 -0.067114272741 -0.223801165064
2.347275555000 -0.031827761075 -0.239739526338 0.955047526174 -0.214115184334 0.945042914915 -0.183577935679 -0.066741743479 -0.224254739394
2.348608666000 -0.031879676147 -0.239668184242 0.955109608314 -0.214037551931 0.943904616122 -0.184339528730 -0.067343544573 -0.225139612320
2.349941777000 -0.031420000115 -0.240034621137 0.955870564004 -0.212945365117 0.942866428756 -0.184174529360 -0.067160405440 -0.225633382425
2.351274888000 -0.032176813422 -0.240232278785 0.955237027934 -0.215794452646 0.944857961083 -0.185055062292 -0.067018117001 -0.225064872331
2.352608000000 -0.032493417877 -0.240051472448 0.955770052898 -0.216072030192 0.944409823880 -0.184856035171 -0.066995088025 -0.225092137518
2.353941111000 -0.032412855676 -0.241948067370 0.957014729303 -0.215273115668 0.947082027804 -0.183314921404 -0.067403506212 -0.224868653518
2.355274222000 -0.032457448975 -0.242544437211 0.955537177236 -0.215534299388 0.947091950048 -0.182639620561 -0.066713626595 -0.224791756249
2.356607333000 -0.035397445973 -0.241398973522 0.956126184594 -0.216206983091 0.946955232491 -0.187252772995 -0.065686356905 -0.225614436164
2.357940444000 -0.031951799786 -0.242883156105 0.956416034721 -0.216366194543 0.947342339610 -0.182250808760 -0.067722397001 -0.224379561773
2.359273555000 -0.033207114283 -0.242937196441 0.956403714319 -0.217246486376 0.947830234789 -0.184493600048 -0.066349413703 -0.225016776716
2.360606666000 -0.034374245792 -0.243791914245 0.956608759876 -0.217399616617 0.949308273704 -0.185134194017 -0.066854189921 -0.224619893320
2.361939777000 -0.032681279924 -0.243543395248 0.956859859539 -0.216505852765 0.946540661618 -0.183357464742 -0.067269734372 -0.225971322161
2.363272888000 -0.032932758482 -0.243200848813 0.956246726609 -0.216393690518 0.946224206270 -0.185109323686 -0.066683824396 -0.226268044297
2.364606000000 -0.033322526904 -0.243541789323 0.957240229424 -0.215655750775 0.946287043763 -0.184147492636 -0.067268503736 -0.227182718075
2.365939111000 -0.032658812308 -0.244732183799 0.957164224922 -0.216312278696 0.947605508302 -0.183087013938 -0.068216939121 -0.226811733566
2.367272222000 -0.031388117704 -0.243427965551 0.956668619406 -0.215636311052 0.943194417204 -0.182698793105 -0.068015309365 -0.227957047887
2.368605333000 -0.031803346300 -0.242305471118 0.956228067184 -0.216758514199 0.944140672276 -0.185532773831 -0.066855098803 -0.228423796079
2.369938444000 -0.033617803077 -0.244832938422 0.955756336308 -0.217718481159 0.946627180800 -0.186084530766 -0.066039569896 -0.226923668682
2.371271555000 -0.032305219776 -0.244246441851 0.957170302652 -0.216287291787 0.945030492481 -0.183340912558 -0.067559519821 -0.227694627101
2.372604666000 -0.031968865905 -0.244536899486 0.956642545769 -0.215838589518 0.944567958328 -0.183784879177 -0.067261569775 -0.229013667179
2.373937777000 -0.034566923001 -0.244371150884 0.956620304284 -0.217602553495 0.946607202596 -0.186057888316 -0.066575950863 -0.227542687539
2.375270888000 -0.034180151137 -0.245113532566 0.956297720404 -0.216786952463 0.946568373758 -0.185053534188 -0.065591207076 -0.228361807802
2.376604000000 -0.033793576972 -0.246498767546 0.957077940497 -0.217097768644 0.948278338908 -0.183537713955 -0.066962934101 -0.226406576288
2.377937111000 -0.034892249304 -0.246037446347 0.956763048077 -0.217729295611 0.948803381545 -0.185123199019 -0.065924864644 -0.226560146450
2.379270222000 -0.033599017180 -0.245945408193 0.955933075753 -0.217349002130 0.947160876764 -0.185097345195 -0.066888309640 -0.228131045649
2.380603333000 -0.032710503686 -0.244522035274 0.956760884841 -0.219067340331 0.946317364102 -0.185027908709 -0.065934258398 -0.228256812057
2.381936444000 -0.035111733460 -0.248239448293 0.955379378652 -0.218632937818 0.949348317663 -0.183231999692 -0.064444285205 -0.226138231399
2.383269555000 -0.032553847844 -0.246069681070 0.956110587614 -0.215285483597 0.944742290985 -0.182854588999 -0.067058385603 -0.230517968626
2.384602666000 -0.034066993415 -0.245813810304 0.955555840031 -0.217035052313 0.945711929752 -0.185002691073 -0.065999840884 -0.229040600235
2.385935777000 -0.035236062184 -0.246239334795 0.956289451251 -0.216730509683 0.947854860682 -0.184607601399 -0.065552906510 -0.228795311279
2.387268888000 -0.034803795286 -0.247365115819 0.954774069346 -0.217735589863 0.947059845982 -0.185316319440 -0.064561447125 -0.228674540362
2.388602000000 -0.038042430236 -0.246989400522 0.957163877936 -0.217139794398 0.952444579926 -0.186529265584 -0.065269294773 -0.228066449368
2.389935111000 -0.033508062793 -0.246418849246 0.956031957713 -0.219133657028 0.946479274820 -0.185461286581 -0.065869403076 -0.228050886147
2.391268222000 -0.035019878906 -0.247497366948 0.955564374398 -0.218549500517 0.947627754199 -0.186196205594 -0.065280044533 -0.228371280789
2.392601333000 -0.034522532805 -0.248192733711 0.952453453581 -0.219193554392 0.947924123178 -0.185249023264 -0.063387526035 -0.227177849915
2.393934444000 -0.033287656755 -0.249229504788 0.954307668271 -0.218629153215 0.946527231888 -0.182061518284 -0.066056106189 -0.228118150265
2.395267555000 -0.033970940918 -0.246052584972 0.955064262762 -0.221500148115 0.947032753652 -0.188121230909 -0.065243781860 -0.227662988893
2.396600666000 -0.035392485729 -0.247512008671 0.954816181413 -0.217671169042 0.946451801720 -0.184194951857 -0.064402705885 -0.229939904071
2.397933777000 -0.033901524267 -0.247468345641 0.952759740793 -0.221831418547 0.946184258957 -0.186686204939 -0.064151351471 -0.227062657492
2.399266888000 -0.035039238458 -0.247503863873 0.955003183829 -0.219958926982 0.946284425231 -0.185329873611 -0.064937488273 -0.228922570815
2.400600000000 -0.034468149611 -0.248674761889 0.953528830738 -0.221211713389 0.947159176074 -0.184683020068 -0.064830760488 -0.227706030949
2.401933111000 -0.034332757301 -0.248263925844 0.954959112293 -0.221393564948 0.947447654560 -0.184777465310 -0.065645638119 -0.227506429879
2.403266222000 -0.035319188052 -0.248187151965 0.953802705439 -0.221225096663 0.948471159241 -0.186580683538 -0.063996315406 -0.227043955806
2.404599333000 -0.037395248087 -0.248356031054 0.955939585906 -0.218166157351 0.948773293790 -0.184828631108 -0.065208263971 -0.230230630348
2.405932444000 -0.035699454322 -0.247314542021 0.954575994589 -0.223232243501 0.948603544176 -0.187489089594 -0.064225799211 -0.226986986282
2.407265555000 -0.035078538476 -0.249488220222 0.952196898369 -0.223667837609 0.947871965694 -0.185497465292 -0.063806277255 -0.225872014763
2.408598666000 -0.036377704452 -0.248854203221 0.952514357698 -0.221962855926 0.947729955424 -0.185880330842 -0.063945554795 -0.228351488818
2.409931777000 -0.037984312440 -0.248365788783 0.953343971825 -0.221717680055 0.949272778630 -0.186418132955 -0.063606193102 -0.228756911738
2.411264888000 -0.036375974242 -0.248792841798 0.952629540388 -0.224785677282 0.949504986237 -0.186088558752 -0.064782677595 -0.226484778758
2.412598000000 -0.038208747883 -0.248372682664 0.955975923095 -0.223739152296 0.950789147273 -0.185617959813 -0.066051715496 -0.227869780096
2.413931111000 -0.039677944865 -0.249515372505 0.953689216027 -0.219559269464 0.951241955077 -0.186310617596 -0.064075806936 -0.228898955215
2.415264222000 -0.038532138434 -0.249559433988 0.953460668263 -0.222223767902 0.951181517952 -0.186535202847 -0.064064140422 -0.227378192035
2.416597333000 -0.039055306313 -0.250098990778 0.950869888983 -0.221710726779 0.949802417484 -0.187343009319 -0.062647205369 -0.227725146831
2.417930444000 -0.037192149772 -0.248040317949 0.954108323103 -0.227040589491 0.949705385005 -0.188377287736 -0.065566795425 -0.225773772400
2.419263555000 -0.038914514623 -0.249019979361 0.955588981367 -0.224403779488 0.951637042420 -0.187496726406 -0.065355708942 -0.227242230573
2.420596666000 -0.038855952332 -0.248545126585 0.954120627587 -0.225641948334 0.950972007783 -0.188149063533 -0.064846289847 -0.226226177460
2.421929777000 -0.039733688690 -0.248764133528 0.952763270795 -0.226827963159 0.951710952431 -0.188205339012 -0.064304062945 -0.225486713517
2.423262888000 -0.039002201123 -0.248270893424 0.951437069505 -0.227953904575 0.952029454140 -0.188633056969 -0.064651660099 -0.224943001121
2.424596000000 -0.040655461540 -0.248162905396 0.953211950168 -0.225841050216 0.952667460533 -0.189008123820 -0.064830904127 -0.226428278618
2.425929111000 -0.039684074035 -0.248297232772 0.954463791577 -0.229642874368 0.953200103260 -0.189396871893 -0.065866289427 -0.223846192868
2.427262222000 -0.043825883178 -0.248614652130 0.954862854069 -0.224188184429 0.954835587309 -0.187973693126 -0.064731343871 -0.226568089576
2.428595333000 -0.040986623369 -0.248530401921 0.953132848918 -0.227457198662 0.953544335943 -0.188921973551 -0.065147778430 -0.225155365255
2.429928444000 -0.041483200986 -0.248379609695 0.951930268173 -0.228820772799 0.954129729198 -0.189915823871 -0.064686323916 -0.224092906423
2.431261555000 -0.042155856092 -0.247868557369 0.952307091584 -0.226307083759 0.954345962591 -0.189868532330 -0.064876056610 -0.225326960920
2.432594666000 -0.043826397930 -0.246614088523 0.954031179091 -0.227481404024 0.955454835245 -0.191282014326 -0.065099544080 -0.224374659049
2.433927777000 -0.043163615972 -0.247477907363 0.953815499983 -0.228250741228 0.956123927972 -0.190633907301 -0.065964005592 -0.223894908742
2.435260888000 -0.043499958219 -0.247919329391 0.953420868689 -0.228679324486 0.955687944963 -0.190953242191 -0.065729515619 -0.223427634802
2.436594000000 -0.043913613746 -0.245969297121 0.954110015814 -0.231062069218 0.956424141688 -0.192754116818 -0.065984713491 -0.222545651286
2.437927111000 -0.043793508692 -0.246728994455 0.951759287634 -0.231524074174 0.955950317465 -0.192013925244 -0.065527130561 -0.222054063910
2.439260222000 -0.044109243002 -0.246818844101 0.952592609394 -0.230937495457 0.956069060660 -0.191797949126 -0.066420435313 -0.222400735421
2.440593333000 -0.044908007087 -0.247215893857 0.952947619740 -0.230843146746 0.957377336814 -0.191731005449 -0.066855909409 -0.221986970921
2.441926444000 -0.045869155213 -0.246497073659 0.954163544852 -0.229222370336 0.958591235514 -0.192546160886 -0.067161975386 -0.222328355851
2.443259555000 -0.045617686739 -0.245114159575 0.955888039722 -0.230886776832 0.957823400176 -0.194348868701 -0.067396046978 -0.222117125411
2.444592666000 -0.047353873351 -0.245913103824 0.953386182338 -0.231203404244 0.960300126496 -0.193998579890 -0.066821792472 -0.220484718258
2.445925777000 -0.048032260726 -0.245577950864 0.952792683517 -0.230438976265 0.960392821353 -0.194660525898 -0.067195314315 -0.220425138695
2.447258888000 -0.047239751140 -0.246654946213 0.951338659176 -0.231443508330 0.960456058033 -0.193270419721 -0.067253406730 -0.220283537499
2.448592000000 -0.047894914446 -0.246013123734 0.953400229235 -0.230575027483 0.961058836225 -0.193533233580 -0.067859840293 -0.219870982757
2.449925111000 -0.048235416013 -0.245877453469 0.952994173630 -0.230831497399 0.960333068176 -0.195575143809 -0.066925825144 -0.219638373726
2.451258222000 -0.047852113527 -0.245421546027 0.952784534206 -0.234096928766 0.960902618292 -0.195496731511 -0.068065641391 -0.217477475439
2.452591333000 -0.048196439987 -0.245541137194 0.950162388883 -0.231146225715 0.960328691551 -0.195258566660 -0.066700509901 -0.219561125887
2.453924444000 -0.048818756609 -0.245617687831 0.953652083595 -0.232693582919 0.962842392011 -0.194115867351 -0.069072717483 -0.217757620692
2.455257555000 -0.048679862432 -0.244062456660 0.952062498495 -0.232068277863 0.960515942254 -0.197769837646 -0.067097677809 -0.218561118536
2.456590666000 -0.048880476257 -0.243447159045 0.952032669114 -0.232814847010 0.960312644035 -0.198827335344 -0.066616774307 -0.218214748975
2.457923777000 -0.049194384127 -0.244301076537 0.952782769666 -0.234027397351 0.963232044458 -0.196465487644 -0.069215942439 -0.216708284756
2.459256888000 -0.049499667832 -0.242399622419 0.953520643991 -0.233499374943 0.961801736578 -0.199570027975 -0.068049955341 -0.217063246290
2.460590000000 -0.049078127324 -0.243455769987 0.952551709542 -0.233473352944 0.963002614311 -0.199347366418 -0.067883020422 -0.216237493838
2.461923111000 -0.050105924373 -0.242290383556 0.952488517397 -0.231813771867 0.962523301429 -0.200420531637 -0.067828446369 -0.217069536115
2.463256222000 -0.049481063229 -0.243022137580 0.952397026667 -0.233420831249 0.961730575710 -0.199062336789 -0.068468759326 -0.216623137018
2.464589333000 -0.049188783795 -0.242381445912 0.952581422268 -0.233705683606 0.962748550582 -0.200893107564 -0.068321553790 -0.215252023495
2.465922444000 -0.049391713448 -0.241959137985 0.951435002278 -0.235111126650 0.961819930524 -0.201009987037 -0.067662530067 -0.215809664353
2.467255555000 -0.049503173975 -0.242451439007 0.952680565034 -0.235226793637 0.961704857757 -0.199979487904 -0.068633795226 -0.215632802214
2.468588666000 -0.049958535265 -0.242666618786 0.952381806699 -0.234377456023 0.962585301169 -0.198850339983 -0.069505735964 -0.215077183973
2.469921777000 -0.050386113096 -0.240811663544 0.952961171437 -0.235243832842 0.962692958062 -0.202577673725 -0.068191025038 -0.214151833627
2.471254888000 -0.050305720615 -0.241089375445 0.952037919070 -0.233654606641 0.960570515577 -0.200832556542 -0.067805568758 -0.216528271764
2.472588000000 -0.049578389047 -0.242020624714 0.951233845635 -0.235001711704 0.961394454943 -0.202242181020 -0.068371544313 -0.215604858495
2.473921111000 -0.052179918551 -0.241470755448 0.952096146959 -0.236781404464 0.967397996065 -0.206058400518 -0.068116547599 -0.212024810478
2.475254222000 -0.048962175256 -0.242125568568 0.952580315016 -0.235364545861 0.961005262614 -0.199946750543 -0.069157444960 -0.215287977700
2.476587333000 -0.049994684682 -0.241008115792 0.951567905164 -0.235515829767 0.961297999533 -0.202601011186 -0.068124290572 -0.214399281586
2.477920444000 -0.049702567203 -0.242063529030 0.951894969809 -0.234913108203 0.962050371555 -0.200766927321 -0.069936342326 -0.215204229940
2.479253555000 -0.050866469180 -0.242002541999 0.952491085595 -0.235148263289 0.963704456417 -0.201893021179 -0.069560079408 -0.213382141828
2.480586666000 -0.050067067114 -0.241238709625 0.950914249920 -0.235168440434 0.961309773251 -0.204779998064 -0.068044606305 -0.214353793419
2.481919777000 -0.049910919635 -0.242203716851 0.952451003208 -0.236066660642 0.963206397246 -0.200437213280 -0.069736325266 -0.214267767719
2.483252888000 -0.050170643585 -0.241874223300 0.953355465903 -0.235996745765 0.960921352721 -0.201122590596 -0.070279015167 -0.213898686378
2.484586000000 -0.050496568393 -0.242190278429 0.952289460266 -0.235921117514 0.963694298735 -0.201447829502 -0.070183180094 -0.214105642376
2.485919111000 -0.050056571889 -0.241235009661 0.951595227337 -0.235472732749 0.960984651281 -0.205453220647 -0.068734178950 -0.213957671531
2.487252222000 -0.050123426188 -0.241701452794 0.951689092132 -0.236205281163 0.962835677382 -0.204206655409 -0.068992865935 -0.213985333312
2.488585333000 -0.049723281953 -0.241499105759 0.951111796842 -0.235210301117 0.962064081532 -0.204628224742 -0.069093150013 -0.215281636321
2.489918444000 -0.048729636746 -0.241869205233 0.952002032626 -0.235683211661 0.960029591826 -0.201457988938 -0.070339448783 -0.215198795866
2.491251555000 -0.050600632649 -0.241485580710 0.952462037209 -0.236971628763 0.963892993075 -0.205140412475 -0.069475584716 -0.213508677099
2.492584666000 -0.049061395130 -0.242727685125 0.951939380400 -0.235517766865 0.962119011840 -0.201597784328 -0.070782778023 -0.214699181626
2.493917777000 -0.049236490357 -0.242403587945 0.951581024270 -0.235723181766 0.962754966951 -0.201950013767 -0.070398205900 -0.214289701879
2.495250888000 -0.048709436622 -0.241704636127 0.950999026567 -0.236894169569 0.959591019357 -0.203351087120 -0.068996782129 -0.214923751668
2.496584000000 -0.048637141893 -0.242532359767 0.950609424707 -0.235902352902 0.961755347139 -0.203028418954 -0.070230555176 -0.214453495447
2.497917111000 -0.048902700678 -0.241837386231 0.950758950803 -0.236362474053 0.960474239516 -0.204060785068 -0.070076549388 -0.214304483289
2.499250222000 -0.048751325752 -0.242182783256 0.951206868868 -0.236206729386 0.960606988118 -0.203163358522 -0.069825283465 -0.214695117662
2.500583333000 -0.046655842638 -0.242709600636 0.950507913444 -0.234142026508 0.956976798888 -0.200621139883 -0.071245187203 -0.216421416184
2.501916444000 -0.048556043171 -0.243130952561 0.950986760254 -0.236030933437 0.961286675687 -0.201523042674 -0.071284362638 -0.215180049032
2.503249555000 -0.048915412598 -0.242806090692 0.950371548997 -0.236807024570 0.962167439979 -0.203676711156 -0.070179385503 -0.215199384072
2.504582666000 -0.048654535743 -0.243161486698 0.950824941735 -0.236843355960 0.960786510435 -0.202983720343 -0.070432322921 -0.215016697184
2.505915777000 -0.048144441511 -0.242848644879 0.951133589271 -0.235596683589 0.959085457152 -0.203474535420 -0.070076302586 -0.216375880957
2.507248888000 -0.047784213596 -0.243555074475 0.950760115120 -0.237890179158 0.959808376959 -0.201625821308 -0.071082443754 -0.214744239331
2.508582000000 -0.048303322076 -0.243377779315 0.950168134617 -0.236757781138 0.960707769781 -0.203123049947 -0.069981159533 -0.215037329596
2.509915111000 -0.048552120456 -0.243846380181 0.950586405730 -0.237141179023 0.961196134024 -0.203690576942 -0.070338285466 -0.215128462250
2.511248222000 -0.048627423074 -0.243692827795 0.950716240207 -0.235519809342 0.960924400352 -0.204366404723 -0.070376101594 -0.215176538100
2.512581333000 -0.048176711603 -0.244170793896 0.952449607812 -0.236760265116 0.959859485040 -0.203028368081 -0.070541445072 -0.216080536619
2.513914444000 -0.047379556833 -0.244123598662 0.950119820850 -0.236556061501 0.958204046316 -0.202325038467 -0.069810857268 -0.216294534666
2.515247555000 -0.047487591226 -0.244656009530 0.951753641336 -0.235737087955 0.958730607538 -0.202639898119 -0.070953658005 -0.216901841615
2.516580666000 -0.047595022055 -0.244610837027 0.951209478500 -0.233752852289 0.958435603211 -0.201263868635 -0.071481467701 -0.217860528935
2.517913777000 -0.047490972971 -0.244715225075 0.949339482252 -0.237665733624 0.959174463461 -0.203630574216 -0.070208987865 -0.216102009675
2.519246888000 -0.047599492164 -0.245554101920 0.950385047998 -0.237674465701 0.959787432873 -0.201614759907 -0.071322883083 -0.216918636959
2.520580000000 -0.046485648775 -0.246457904652 0.953393547008 -0.238053344081 0.958942361043 -0.199819039958 -0.072462230494 -0.217743278319
2.521913111000 -0.047951579991 -0.245326267671 0.948727388802 -0.237894385403 0.959928502152 -0.204897868233 -0.069991337938 -0.216186309683
2.523246222000 -0.046978050274 -0.245536888438 0.950856227438 -0.236987693476 0.957575327991 -0.202705080729 -0.070669629766 -0.217995587578
2.524579333000 -0.047351709256 -0.246415352427 0.949132474430 -0.239846253097 0.958562700679 -0.202391840305 -0.070824009546 -0.217235550655
2.525912444000 -0.047747761719 -0.245718838884 0.950353112484 -0.235620259125 0.957869018665 -0.203534078779 -0.070004399363 -0.218369687967
2.527245555000 -0.046429897327 -0.246302572097 0.951294541230 -0.237342111554 0.957246003455 -0.201690707798 -0.070197456567 -0.218556097525
2.528578666000 -0.046607243539 -0.246748151805 0.950147291808 -0.238771060560 0.956775779963 -0.201827927143 -0.070767196868 -0.218561327874
2.529911777000 -0.046977970497 -0.247113238468 0.950203593979 -0.237607458515 0.957690420919 -0.202823690827 -0.070335202960 -0.218928340263
2.531244888000 -0.046565616995 -0.246538376410 0.950655174836 -0.237773620654 0.956664798838 -0.202457624702 -0.070546184989 -0.219331323718
2.532578000000 -0.046440319582 -0.247735198598 0.951626730356 -0.238980635907 0.957488819648 -0.201956156073 -0.071025209199 -0.219484172332
2.533911111000 -0.046626293588 -0.247305404469 0.950571294661 -0.237612665948 0.956725048553 -0.202626567087 -0.070072500737 -0.219880272338
2.535244222000 -0.046720489869 -0.248500168776 0.949594018645 -0.239088295139 0.957437293320 -0.201477064768 -0.070529560078 -0.219835115239
2.536577333000 -0.047110151820 -0.248395568188 0.948509283582 -0.237035014233 0.957065067643 -0.201758012602 -0.069836840245 -0.219966066354
2.537910444000 -0.047021025373 -0.248415181555 0.949313916883 -0.236836502761 0.956504070443 -0.201683657648 -0.069550713320 -0.220514770940
2.539243555000 -0.046295037192 -0.248388711102 0.950260245611 -0.238051567037 0.956049853015 -0.202025154821 -0.070202625719 -0.221137960847
2.540576666000 -0.046450850824 -0.248641996665 0.950503195275 -0.237883522945 0.955592080426 -0.202415660269 -0.069952554636 -0.221595909698
2.541909777000 -0.047072123527 -0.249454128177 0.948845848270 -0.236842087728 0.956422947635 -0.202588745642 -0.069280150032 -0.221406597465
2.543242888000 -0.045947325437 -0.249632228000 0.950437822176 -0.239436614253 0.955385505637 -0.201948428418 -0.070008238186 -0.221141747565
2.544576000000 -0.045710207332 -0.251080760955 0.949353388739 -0.238926288601 0.955367645560 -0.201395898939 -0.069864311105 -0.221277522625
2.545909111000 -0.046681039966 -0.250862150987 0.949266960080 -0.239281227175 0.955695730459 -0.201564976956 -0.070396317249 -0.221335777458
2.547242222000 -0.046006181866 -0.251037271259 0.948922131203 -0.238328419908 0.955000496822 -0.201055479892 -0.069956933319 -0.222130938406
2.548575333000 -0.045832249615 -0.251743634241 0.949978099394 -0.239955063277 0.954682842907 -0.201483126894 -0.070207362513 -0.221636191290
2.549908444000 -0.045599564049 -0.251430271356 0.950640614713 -0.238471432530 0.955227243037 -0.200722165514 -0.070250617661 -0.222644544266
2.551241555000 -0.045969011475 -0.252130310230 0.948575821439 -0.238969829397 0.954164569228 -0.201399126406 -0.069732920115 -0.222534419916
2.552574666000 -0.044932697887 -0.252446669107 0.949700732399 -0.239761354687 0.953950351363 -0.201188381263 -0.070410953721 -0.223262126762
2.553907777000 -0.045108836278 -0.252312023235 0.951257564383 -0.239858657069 0.953783701937 -0.200709010311 -0.070499310758 -0.223524860040
2.555240888000 -0.045561459650 -0.251776263972 0.950657072680 -0.239187796715 0.954058046352 -0.201669139193 -0.069906660250 -0.223990613221
2.556574000000 -0.045503868990 -0.252416380951 0.950192919426 -0.239841252411 0.953365824175 -0.201178056718 -0.070149482565 -0.223728573961
2.557907111000 -0.044405524219 -0.252306669201 0.952116249209 -0.240064218607 0.953293749811 -0.200922403060 -0.071264993911 -0.224516928901
2.559240222000 -0.045427363117 -0.252678373133 0.950661085551 -0.239960535036 0.952741981778 -0.201513729392 -0.070325751181 -0.224405860615
2.560573333000 -0.045428986275 -0.253288269030 0.949847526716 -0.241289163423 0.952633367834 -0.202342370433 -0.069928021164 -0.224167029511
2.561906444000 -0.044897558895 -0.253185531803 0.952206326662 -0.241043324529 0.952973827151 -0.201790742969 -0.071667815555 -0.225042346031
2.563239555000 -0.044860440213 -0.253677557806 0.951569602203 -0.241467870075 0.952633564074 -0.201348538924 -0.070703397552 -0.224686230695
2.564572666000 -0.045444250734 -0.252571297171 0.950044948470 -0.241262111577 0.950776843720 -0.203271537827 -0.068952317585 -0.225264941248
2.565905777000 -0.044979430520 -0.254077663818 0.950938188205 -0.242147311603 0.951657422348 -0.202778145660 -0.069437454962 -0.225006121659
2.567238888000 -0.045227606212 -0.254069912515 0.949509952974 -0.242274756927 0.951052995542 -0.201314768282 -0.069749326538 -0.225703662120
2.568572000000 -0.045449161697 -0.253693489725 0.949530100742 -0.241043094688 0.950742793105 -0.201820214847 -0.069545833856 -0.225944616625
2.569905111000 -0.044291578669 -0.254285902009 0.950414706994 -0.243245989006 0.950344656907 -0.202026530914 -0.070227310172 -0.225537487735
2.571238222000 -0.044613524770 -0.255616293305 0.949630528443 -0.242959474714 0.950158989353 -0.200435461176 -0.070684623658 -0.225698024171
2.572571333000 -0.044450717476 -0.253989395677 0.951695962871 -0.244230847177 0.951621727786 -0.202766483469 -0.071014854573 -0.225088781569
2.573904444000 -0.042474551157 -0.256112305383 0.949931840721 -0.246097973294 0.949753538966 -0.201896778690 -0.071410598862 -0.225025241521
2.575237555000 -0.044575336429 -0.256594293008 0.949851949400 -0.243796906350 0.950799613300 -0.201602365256 -0.070005403071 -0.225408216771
2.576570666000 -0.043863462997 -0.255875584215 0.949189098525 -0.244497023916 0.948427565392 -0.202191205015 -0.070368549151 -0.226284651416
2.577903777000 -0.043745290781 -0.257006125550 0.949076374065 -0.245321464752 0.949067356643 -0.201642300017 -0.070103634251 -0.226080471068
2.579236888000 -0.043851885123 -0.258075990633 0.950297614669 -0.244107741510 0.949909753948 -0.200981387487 -0.070796819104 -0.226055192492
2.580570000000 -0.044624085553 -0.255651058096 0.950423797306 -0.245625320338 0.949684674709 -0.203829647892 -0.069956488171 -0.225998132004
2.581903111000 -0.044046603961 -0.256837036691 0.950335993375 -0.245209880477 0.950268466991 -0.201168447597 -0.071359403224 -0.226515737620
2.583236222000 -0.041119783316 -0.256507051612 0.951366429003 -0.246094034704 0.947641042944 -0.201552353063 -0.071666613244 -0.227169090458
2.584569333000 -0.042883740127 -0.257604684698 0.949908385720 -0.245600165416 0.948287565537 -0.201829377137 -0.070381476452 -0.227632861951
2.585902444000 -0.042634681672 -0.258442557100 0.949566269897 -0.245876951297 0.948258974757 -0.200182448877 -0.071086332069 -0.227396239781
2.587235555000 -0.042896122226 -0.257724893784 0.951176922839 -0.244439617277 0.948276062996 -0.199173689535 -0.071668477553 -0.229307408908
2.588568666000 -0.042512049276 -0.259310850717 0.950582901827 -0.247293728907 0.949211205263 -0.201313533316 -0.071360909337 -0.226809493106
2.589901777000 -0.043434049555 -0.258132814970 0.951377319914 -0.247164499607 0.948838530821 -0.202054056635 -0.071046762196 -0.228208487191
2.591234888000 -0.042948542311 -0.259373681831 0.952131460410 -0.247631150072 0.950140220453 -0.200857948003 -0.073126386036 -0.227480262518
2.592568000000 -0.043021218597 -0.258561272627 0.951720799796 -0.247359911909 0.949489713730 -0.201275715222 -0.071531200962 -0.227768072605
2.593901111000 -0.042815360709 -0.257632577543 0.950786307889 -0.248618618580 0.947250880503 -0.204438417012 -0.070048670695 -0.228536079154
2.595234222000 -0.042437317763 -0.259514409699 0.950270230576 -0.248866459158 0.947742046184 -0.201927687329 -0.071449185201 -0.227212652105
2.596567333000 -0.042663205258 -0.260792711755 0.950569345055 -0.248672367935 0.948057123925 -0.203314653461 -0.070926762216 -0.227652237063
2.597900444000 -0.042936733718 -0.260083879944 0.950504284346 -0.249023951325 0.946398380889 -0.204594671854 -0.069141458166 -0.228008632962
2.599233555000 -0.041547503381 -0.261994596551 0.950997545973 -0.248632625723 0.947427508084 -0.199689639324 -0.072402619388 -0.229103902538
2.600566666000 -0.042187111234 -0.260264367768 0.950525264130 -0.248897807863 0.946327461193 -0.202019788323 -0.071025570222 -0.230747295507
2.601899777000 -0.041178793750 -0.261462398900 0.950331665500 -0.248936300917 0.945057205816 -0.200639109863 -0.070810019194 -0.230437557981
2.603232888000 -0.041995356644 -0.263135669869 0.952059664897 -0.249148305587 0.947671809205 -0.199135324083 -0.072868895912 -0.230686712437
2.604566000000 -0.042562902072 -0.262684877708 0.952175706102 -0.249353926768 0.948294111607 -0.203447016855 -0.071863334933 -0.229430126945
2.605899111000 -0.043093290207 -0.261916873343 0.950917423656 -0.250364444269 0.948223969061 -0.204627465631 -0.070979704547 -0.228047319749
2.607232222000 -0.042411340833 -0.263541689609 0.949800865313 -0.250570837622 0.945546215469 -0.201533883003 -0.070643244199 -0.229550021019
2.608565333000 -0.042395837484 -0.262797952445 0.949504935519 -0.250046204229 0.946342757255 -0.202500853981 -0.069418429749 -0.229653876350
2.609898444000 -0.044055160419 -0.265406496881 0.951953437681 -0.250528787566 0.950791149375 -0.200944636688 -0.073293817770 -0.228613656231
2.611231555000 -0.043340151601 -0.263594725257 0.951341677495 -0.250906735841 0.948105416176 -0.201258699614 -0.072286729267 -0.230809968252
2.612564666000 -0.043417058492 -0.265554391119 0.950277418491 -0.250421639271 0.948695341345 -0.202396564104 -0.071595894764 -0.229733529268
2.613897777000 -0.044455602992 -0.264366155229 0.951952326833 -0.251125892854 0.948441662668 -0.203177015702 -0.071379349294 -0.229562240905
2.615230888000 -0.042140910000 -0.264350484479 0.949691433358 -0.250271194207 0.945355061869 -0.202910121361 -0.070238214652 -0.231454503837
2.616564000000 -0.043369228686 -0.263095524106 0.950110697750 -0.254107272279 0.947131086343 -0.204415973534 -0.070340292081 -0.228420815157
2.617897111000 -0.043278247374 -0.265756356604 0.950542480969 -0.253064624399 0.948098360870 -0.203100934954 -0.071083877651 -0.230324917279
2.619230222000 -0.041925613396 -0.265414442759 0.950527748584 -0.254091569507 0.946838922974 -0.201822148713 -0.072901519701 -0.229998470502
2.620563333000 -0.043752523215 -0.266495402495 0.948494774966 -0.252467947882 0.948952366430 -0.202821138415 -0.071446516772 -0.231025719769
2.621896444000 -0.042789159702 -0.265044513385 0.947870284414 -0.253747561636 0.946212965348 -0.204312146657 -0.070337589144 -0.229320289987
2.623229555000 -0.045004604354 -0.263450363383 0.949864889740 -0.256052957433 0.947959628496 -0.207978886305 -0.071644053279 -0.229568554862
2.624562666000 -0.042718192299 -0.266410677216 0.947435727437 -0.253214771408 0.944786520725 -0.204908789528 -0.068764441718 -0.231003205141
2.625895777000 -0.041318210556 -0.267249093243 0.947122785460 -0.254538557634 0.943773582825 -0.203130162636 -0.069258333263 -0.230571097074
2.627228888000 -0.042531929271 -0.266138511115 0.947972283281 -0.255407873407 0.944574211725 -0.204803942464 -0.069170561752 -0.230332496312
2.628562000000 -0.041666085859 -0.271854489858 0.957689427991 -0.255566124791 0.948803559773 -0.192696600340 -0.077518370740 -0.221686280867
2.629895111000 -0.037805199403 -0.271210936233 0.950742031428 -0.253684585182 0.941790129090 -0.192361645887 -0.070527997637 -0.222213248597
2.631228222000 -0.039887586100 -0.272374074009 0.954745918099 -0.257030309494 0.945482034938 -0.191020484983 -0.074171162033 -0.220202211404
2.632561333000 -0.039802007267 -0.273734003282 0.956150963770 -0.256777413710 0.943997020854 -0.189359023138 -0.075185449828 -0.222196568061
2.633894444000 -0.044617327111 -0.268359332844 0.948524196600 -0.255609923927 0.948520809739 -0.203321542023 -0.071166351501 -0.231430872429
2.635227555000 -0.044717075968 -0.270670214252 0.950907812243 -0.254935830970 0.948178155950 -0.200847960687 -0.072775666297 -0.233134644412
2.636560666000 -0.042555469263 -0.269605571763 0.947663779110 -0.253703013787 0.944339795819 -0.203753938689 -0.069440031948 -0.232583325651
2.637893777000 -0.045271365292 -0.270024072012 0.948333794657 -0.258395632712 0.949533607212 -0.202425069828 -0.071970007123 -0.231550752360
2.639226888000 -0.044503948843 -0.271975160085 0.949320462343 -0.255848038682 0.948671803777 -0.199842646581 -0.071762692888 -0.232973298419
2.640560000000 -0.044745279157 -0.270032630049 0.948792524043 -0.255787512306 0.946629705819 -0.203096487056 -0.070596845004 -0.233135970816
2.641893111000 -0.044799302245 -0.268865988216 0.948143259781 -0.259391619110 0.947914077919 -0.204739931019 -0.071826261846 -0.230766383124
2.643226222000 -0.047465140843 -0.269902799660 0.949560900971 -0.259720413700 0.950917337954 -0.205411209557 -0.073058053530 -0.230602715356
2.644559333000 -0.047514948116 -0.270542196500 0.946862299150 -0.261918353416 0.951843223823 -0.204432036218 -0.071264134934 -0.229366746371
2.645892444000 -0.045683799820 -0.271245893413 0.947303618505 -0.259037711893 0.949318177391 -0.203345835546 -0.071172071262 -0.231858510831
2.647225555000 -0.046640305478 -0.270917485940 0.947647320017 -0.259937973930 0.949673606583 -0.203448430234 -0.071134700454 -0.232014913224
2.648558666000 -0.045569929483 -0.269996023667 0.947147000232 -0.259748798597 0.947650106187 -0.204634562678 -0.070040740216 -0.230708903113
2.649891777000 -0.048350727409 -0.270781588039 0.947907005973 -0.260475722085 0.952114165854 -0.204568785249 -0.072290272001 -0.232436908515
2.651224888000 -0.048051487116 -0.270726563428 0.947858871638 -0.261287439080 0.950402941312 -0.204391781612 -0.071367404991 -0.230924712182
2.652558000000 -0.048575589300 -0.271044805352 0.947755264588 -0.259980673043 0.950842505883 -0.205103846764 -0.071777987907 -0.231717531400
2.653891111000 -0.048397466937 -0.271299304500 0.946813102137 -0.259116273075 0.951435211966 -0.203470671187 -0.070225141293 -0.232623367484
2.655224222000 -0.048093411826 -0.269843947876 0.945519818315 -0.256609246894 0.950566186406 -0.205300439021 -0.068978100971 -0.233388245828
2.656557333000 -0.047444834669 -0.271973843113 0.947449212512 -0.259948511129 0.949525873929 -0.201982630667 -0.069435092788 -0.233020695081
2.657890444000 -0.048098918147 -0.272735216104 0.947230586106 -0.261106834725 0.949943237074 -0.201827420058 -0.069714430448 -0.231715857103
2.659223555000 -0.049504411362 -0.271353658444 0.947040209754 -0.260350064382 0.951920285908 -0.204256722493 -0.070520802277 -0.232068897780
2.660556666000 -0.048811826186 -0.271730046504 0.946763473204 -0.263170370825 0.950153968056 -0.203791310339 -0.069241168207 -0.229643665128
2.661889777000 -0.049808860725 -0.272382789483 0.945760254944 -0.262486470013 0.951983325620 -0.202926504648 -0.068671259606 -0.231200668529
2.663222888000 -0.051379393162 -0.271920714390 0.944891148109 -0.262335665657 0.953209922160 -0.203922440566 -0.068837614329 -0.230987556715
2.664556000000 -0.050926415875 -0.272146886013 0.946998343504 -0.264023441766 0.952285697683 -0.203860808927 -0.069314893488 -0.230093615290
2.665889111000 -0.050788955600 -0.272240123897 0.948851599168 -0.262279233008 0.952518993818 -0.204450311009 -0.071468369506 -0.231989009271
2.667222222000 -0.051117585574 -0.272187395820 0.950320341170 -0.264671239809 0.952629882130 -0.204587523059 -0.072283841234 -0.230932855481
2.668555333000 -0.050599205654 -0.271124202117 0.948086892291 -0.265138372978 0.952778161810 -0.205434603622 -0.070343998840 -0.228931426456
2.669888444000 -0.051243792965 -0.270956706243 0.947619034475 -0.263544485100 0.953244002606 -0.206500883485 -0.069263063126 -0.232052432537
2.671221555000 -0.052223589226 -0.271658956582 0.949037353587 -0.266052178115 0.953574684403 -0.207076982106 -0.071393853759 -0.230301038838
2.672554666000 -0.053620611237 -0.270428327492 0.947775705790 -0.264313596269 0.954319742122 -0.208377804454 -0.069311603770 -0.231618074770
2.673887777000 -0.054061079411 -0.270551435350 0.947077053359 -0.267429972869 0.955332531332 -0.207413180764 -0.069473865213 -0.227705760929
2.675220888000 -0.053470245985 -0.269684191123 0.948628270994 -0.265050592333 0.954866268344 -0.208786794461 -0.070709800618 -0.229923973460
2.676554000000 -0.054274634700 -0.269348774676 0.947655772557 -0.264794161149 0.954781480027 -0.209383295834 -0.070448381748 -0.231495648769
2.677887111000 -0.054338555864 -0.271003091618 0.947310465083 -0.267911415506 0.954829911183 -0.208125408127 -0.070039567812 -0.228788586021
2.679220222000 -0.057258718284 -0.268748606503 0.945994203705 -0.265712768833 0.957702315545 -0.210887758899 -0.067793216437 -0.230436267619
2.680553333000 -0.056167627308 -0.268724314538 0.945561863758 -0.266794526644 0.957137421610 -0.211248651426 -0.067536601091 -0.229315932729
2.681886444000 -0.056721277297 -0.268853533970 0.947479529883 -0.266924114101 0.957095823054 -0.211216998558 -0.069614373737 -0.229350755628
2.683219555000 -0.057452177754 -0.269392590690 0.947110330621 -0.269393873590 0.957956806263 -0.211252270105 -0.070735958943 -0.228030141883
2.684552666000 -0.056782757878 -0.268163175289 0.945787151868 -0.269253959975 0.956086026159 -0.213232057312 -0.068466880931 -0.227934149134
2.685885777000 -0.058036207692 -0.265861142410 0.947556759697 -0.266019216715 0.958342524115 -0.215379367106 -0.069074181420 -0.230423848311
2.687218888000 -0.057804901235 -0.265441209026 0.945899871273 -0.269056102955 0.957394755883 -0.216649238753 -0.065715020900 -0.229445089893
2.688552000000 -0.057459616917 -0.265784497166 0.947189735850 -0.269868545838 0.957710381205 -0.215963943067 -0.069190649182 -0.227971387195
2.689885111000 -0.059615451439 -0.263618980856 0.947505344219 -0.268704570461 0.959471162867 -0.218225787047 -0.069481116010 -0.228979133762
2.691218222000 -0.059728586979 -0.266215498824 0.946336653186 -0.270903380880 0.959856280367 -0.215874042308 -0.070143963662 -0.226812033041
2.692551333000 -0.061262607958 -0.265225846691 0.946015599675 -0.272421498264 0.961139896173 -0.217803530183 -0.069590910794 -0.225299229913
2.693884444000 -0.061390708044 -0.263920934352 0.942985949148 -0.271248397569 0.961033212607 -0.219911123592 -0.066385378551 -0.227504633947
2.695217555000 -0.059370197953 -0.260115168771 0.944017955819 -0.273199352320 0.959470102385 -0.223976354537 -0.065376377929 -0.224797413358
2.696550666000 -0.062923524542 -0.261771898167 0.942916944135 -0.271651200989 0.962164011969 -0.222456190655 -0.065275148944 -0.226129446773
2.697883777000 -0.063821889507 -0.261789393281 0.942612219642 -0.273523364924 0.963484063682 -0.223124987829 -0.065548600962 -0.224009885528
2.699216888000 -0.062928781554 -0.259910764715 0.945247287404 -0.273735788476 0.962396946648 -0.224898624134 -0.068101351668 -0.223898197648
2.700550000000 -0.065701432342 -0.258653264328 0.944672484763 -0.272411024025 0.962929994619 -0.225075185953 -0.069475006414 -0.226593974428
2.701883111000 -0.062771122234 -0.258064276451 0.942989755638 -0.276403415506 0.963213898675 -0.229215672183 -0.065797019360 -0.221930722089
2.703216222000 -0.062409158220 -0.257637405539 0.942656790108 -0.274741299824 0.959993113661 -0.229095871457 -0.066353558202 -0.225388106870
2.704549333000 -0.061408003276 -0.255720011871 0.944786839489 -0.276461094985 0.961756201791 -0.230620156942 -0.067840609614 -0.222759996614
2.705882444000 -0.063598792751 -0.255083075186 0.943231819749 -0.277984148648 0.962722875471 -0.232424000743 -0.066418613267 -0.220617735502
2.707215555000 -0.062831679832 -0.257060411451 0.942545696166 -0.277996098806 0.962332424778 -0.230392176018 -0.065421156946 -0.221882198153
2.708548666000 -0.065426610582 -0.255922285919 0.942733428135 -0.278310762831 0.965173447482 -0.231727212861 -0.067698291924 -0.220003740742
2.709881777000 -0.064788731674 -0.254759231321 0.943958370203 -0.279059674884 0.963870415089 -0.233171903186 -0.068999298344 -0.219801433795
2.711214888000 -0.062208864899 -0.258298731333 0.942610807249 -0.279065188946 0.961421297732 -0.230207623336 -0.068568272071 -0.221209043849
2.712548000000 -0.065348009688 -0.253527740931 0.941971419454 -0.279756747133 0.965299633209 -0.236185448380 -0.065483544439 -0.218795214414
2.713881111000 -0.066518092687 -0.253562279272 0.942366029323 -0.279518377522 0.965250077570 -0.236256819222 -0.065923095838 -0.219581801853
2.715214222000 -0.066907148586 -0.252504607565 0.943996070742 -0.280227445823 0.965148286796 -0.238323096307 -0.069082093239 -0.219455808575
2.716547333000 -0.066014865148 -0.252084852849 0.941732121586 -0.278115574385 0.964925790005 -0.238705501745 -0.065856929080 -0.219825592306
2.717880444000 -0.065614822485 -0.251252278801 0.941565364047 -0.283141387292 0.965242911561 -0.238703835184 -0.067427523581 -0.215302019209
2.719213555000 -0.065383003551 -0.251816984918 0.940604604921 -0.281636347635 0.962536008906 -0.241334121155 -0.066004007812 -0.217669643566
2.720546666000 -0.064285770139 -0.248660497710 0.939895508867 -0.284524537821 0.962751909890 -0.242334750202 -0.063601846535 -0.214974359320
2.721879777000 -0.065571319164 -0.247118615037 0.942705353359 -0.283602691040 0.966225624888 -0.243679839425 -0.069578026509 -0.215761321367
2.723212888000 -0.068272009896 -0.247412931051 0.940740869834 -0.284357973112 0.967567532680 -0.245082370993 -0.066286359867 -0.213931161238
2.724546000000 -0.067090260099 -0.247414699420 0.944199286670 -0.283690427620 0.967464810759 -0.245610683482 -0.070604418216 -0.214007441133
2.725879111000 -0.066015649009 -0.245411111552 0.940223901103 -0.284479329833 0.965076684896 -0.249193563827 -0.067336993485 -0.212916742924
2.727212222000 -0.066523587602 -0.244459438782 0.940490737859 -0.285622541614 0.965146317080 -0.251549040232 -0.065678355300 -0.213535822750
2.728545333000 -0.065864498590 -0.244802972140 0.940709758173 -0.289128573701 0.964939480862 -0.250689814541 -0.067018916940 -0.210421279853
2.729878444000 -0.067386890879 -0.245509314348 0.939121591619 -0.285923268236 0.966123363646 -0.248769383075 -0.066668650424 -0.214573487026
2.731211555000 -0.065948199465 -0.244815569032 0.939341191216 -0.286100705279 0.965342964857 -0.251378522442 -0.065715305316 -0.212141028173
2.732544666000 -0.064822324085 -0.244073460668 0.939752009603 -0.287223542780 0.965294279179 -0.250977145327 -0.068105981233 -0.211741465769
2.733877777000 -0.066917394704 -0.241100217083 0.941012687814 -0.290619788862 0.966155860532 -0.253879977822 -0.067535701458 -0.209185351682
2.735210888000 -0.066355488449 -0.243058847324 0.939261406527 -0.287727351597 0.965150730190 -0.253475844699 -0.065350914616 -0.211508219399
2.736544000000 -0.065425785550 -0.243267902497 0.939369401127 -0.289601183219 0.961968039764 -0.252601441696 -0.066147886357 -0.211028939197
2.737877111000 -0.066620565326 -0.242980031346 0.941428525141 -0.289685343765 0.964828617348 -0.253705643264 -0.068065641727 -0.210089842188
2.739210222000 -0.066123825275 -0.241535433283 0.938877764927 -0.289538879699 0.965643434266 -0.254883343399 -0.067183352955 -0.210086412304
2.740543333000 -0.064602165282 -0.245298410138 0.940211801631 -0.288385570972 0.964729872891 -0.252349539437 -0.067863244892 -0.211339942799
2.741876444000 -0.065416643440 -0.241231405436 0.940638039190 -0.292466922445 0.964246872956 -0.257126335390 -0.068479568196 -0.207112842454
2.743209555000 -0.066357362524 -0.239803440979 0.938751984412 -0.290986211969 0.966029506473 -0.259022427761 -0.067196944490 -0.208635851469
2.744542666000 -0.066826474837 -0.241647024798 0.940171150740 -0.287999077244 0.966649666054 -0.256848893888 -0.068738780296 -0.210799119833
2.745875777000 -0.066045678241 -0.242432515928 0.939088309922 -0.291239961509 0.964596842652 -0.255716414904 -0.067334242281 -0.208638877201
2.747208888000 -0.066691484871 -0.242209708050 0.939387525930 -0.288471794114 0.964489802047 -0.257862099682 -0.068330698961 -0.210561867781
2.748542000000 -0.066210595871 -0.239524701429 0.940303771898 -0.290677785756 0.964422684222 -0.260986134939 -0.069106143784 -0.208829101232
2.749875111000 -0.066100879819 -0.240437699122 0.942399893620 -0.291446330212 0.964360805235 -0.260258567000 -0.070448552408 -0.208105669449
2.751208222000 -0.066490892715 -0.239937777522 0.939679735650 -0.294782845976 0.965363227189 -0.258285056746 -0.069187535548 -0.206317072290
2.752541333000 -0.066108875555 -0.239841415746 0.939762713892 -0.294170646701 0.963168310976 -0.260190360852 -0.068708711885 -0.207369508062
2.753874444000 -0.065635507123 -0.240640053034 0.939427350416 -0.292592118971 0.963805682399 -0.259398442270 -0.070409638027 -0.206946681830
2.755207555000 -0.065495028657 -0.239489162244 0.940366344077 -0.295270098902 0.966069607643 -0.260826886522 -0.070825156792 -0.206594036327
2.756540666000 -0.067377623854 -0.239525339067 0.941057875259 -0.292514151855 0.965937114157 -0.261811112946 -0.069997701903 -0.206176973073
2.757873777000 -0.065424325763 -0.240229953065 0.939353533501 -0.293868771893 0.964376690227 -0.262454860311 -0.070105104437 -0.206212381188
2.759206888000 -0.065630556589 -0.239807969341 0.941643497045 -0.293389252116 0.963920762052 -0.262013098731 -0.070450540771 -0.207191886398
2.760540000000 -0.065392641402 -0.241033073354 0.942294624851 -0.292213483896 0.963723560855 -0.260623778423 -0.071996893573 -0.208055063771
2.761873111000 -0.064767883299 -0.240484303479 0.939305123574 -0.293709991418 0.963143744123 -0.262693753080 -0.070625572642 -0.207153633260
2.763206222000 -0.066836682335 -0.240527352292 0.939475035918 -0.291844680113 0.965168751410 -0.262806201888 -0.070615975414 -0.208137058976
2.764539333000 -0.065432009653 -0.242736964233 0.940343415766 -0.292654003675 0.961830493848 -0.259318879818 -0.070232901472 -0.208608078624
2.765872444000 -0.065315106328 -0.242744922135 0.939782078018 -0.290122101711 0.963143766371 -0.259716648209 -0.070757814507 -0.209676460691
2.767205555000 -0.064672003877 -0.240484501821 0.938015205784 -0.292412214266 0.962354456528 -0.263573823552 -0.068883892858 -0.208165913217
2.768538666000 -0.064376501960 -0.240910010784 0.937973144545 -0.293197714036 0.962578202050 -0.264247106137 -0.069921519819 -0.206296527692
2.769871777000 -0.064008855328 -0.241038082422 0.937567771283 -0.296799255535 0.963219430982 -0.262660629465 -0.070007485646 -0.206449812038
2.771204888000 -0.065697918898 -0.242889280581 0.939420364165 -0.293162212470 0.963968131626 -0.261745252310 -0.071231265882 -0.208032649175
2.772538000000 -0.064660364142 -0.240916208315 0.937579431355 -0.294760363271 0.962775456294 -0.264328512082 -0.070487162800 -0.207236394167
2.773871111000 -0.064036855077 -0.242411572617 0.938888365385 -0.294347078469 0.961311557395 -0.261050830992 -0.070856372321 -0.207929648929
2.775204222000 -0.063053211138 -0.243046294231 0.935951744207 -0.292365614694 0.961211088081 -0.261767114593 -0.069826121995 -0.209001804370
2.776537333000 -0.065275521096 -0.242966958005 0.938998602138 -0.292439783649 0.963386687360 -0.261836829349 -0.071772290854 -0.209102929239
2.777870444000 -0.063666719397 -0.242887326103 0.937892210920 -0.293155973028 0.962019645075 -0.261142035810 -0.071099625738 -0.208902939150
2.779203555000 -0.063065884855 -0.242827469828 0.937275838211 -0.292882659673 0.960723514497 -0.261534941138 -0.070492861558 -0.209429326029
2.780536666000 -0.064760379406 -0.243500839964 0.938903430051 -0.293506255861 0.962211386539 -0.260331244894 -0.071875867051 -0.209257755853
2.781869777000 -0.063807891411 -0.243769582902 0.937569602077 -0.294255506392 0.961853240233 -0.259011020389 -0.071281143022 -0.209314621248
2.783202888000 -0.063205755784 -0.243981148370 0.937897247913 -0.292060907887 0.960403223025 -0.260896136593 -0.071368250085 -0.210216444706
2.784536000000 -0.064027636528 -0.243632719804 0.938687021589 -0.293883449779 0.960453773284 -0.260037348354 -0.071913139943 -0.210095671228
2.785869111000 -0.062829307376 -0.243623712585 0.936651839979 -0.294591216193 0.960912482160 -0.260423337178 -0.071068734010 -0.209799589779
2.787202222000 -0.063306366146 -0.243784371066 0.939303868246 -0.292850844439 0.959618265774 -0.261051280811 -0.071681285636 -0.210696021245
2.788535333000 -0.063055321287 -0.244060919564 0.936930044754 -0.294472983489 0.960480783170 -0.260617487320 -0.071160101742 -0.210573518338
2.789868444000 -0.062669875812 -0.244460608991 0.937590011514 -0.294503314891 0.958568323427 -0.260681858267 -0.071072800185 -0.210450714205
2.791201555000 -0.062491123104 -0.244897482431 0.937503817694 -0.293424471535 0.958630771697 -0.260347609159 -0.071418633456 -0.211276815441
2.792534666000 -0.061950971798 -0.245078697333 0.937023175857 -0.294385506045 0.958475299952 -0.259591932556 -0.071164396702 -0.211063236836
2.793867777000 -0.061855400723 -0.245303768814 0.937138329632 -0.294091249458 0.958438604370 -0.259456169398 -0.071433706181 -0.211058001075
2.795200888000 -0.062147809953 -0.245397241950 0.938397078399 -0.294270598102 0.958762793510 -0.260170566116 -0.072168640986 -0.211764907638
2.796534000000 -0.061292462975 -0.245291459708 0.936503554067 -0.293666340896 0.957202721625 -0.259429527507 -0.070725976531 -0.212407186513
2.797867111000 -0.061917232584 -0.246001619862 0.936578937728 -0.294310241081 0.958062012395 -0.259009397662 -0.071557731466 -0.212355461520
2.799200222000 -0.061820548526 -0.246723130559 0.937665923442 -0.294225787080 0.957816323144 -0.258535585382 -0.071887177220 -0.212740894614
2.800533333000 -0.060880737290 -0.246670256693 0.936907144416 -0.293766847779 0.956888641681 -0.258879339639 -0.071358395750 -0.212751402083
2.801866444000 -0.061182388490 -0.247443528091 0.937122510818 -0.293231010030 0.957791344337 -0.258024805586 -0.071299997490 -0.213834583828
2.803199555000 -0.061406377205 -0.247548302460 0.936615525680 -0.293851387069 0.957677023379 -0.258696487510 -0.071170562512 -0.213956371140
2.804532666000 -0.060853254189 -0.247712428247 0.936109573282 -0.293353237720 0.957395288026 -0.259128897356 -0.070384019862 -0.214856501286
2.805865777000 -0.060284635591 -0.248013097707 0.936501733856 -0.293282425991 0.956024654792 -0.258449783126 -0.070955497915 -0.214314181805
2.807198888000 -0.060393330908 -0.248489899828 0.935959737052 -0.294253670855 0.956689992468 -0.257374667838 -0.070107840709 -0.214089070900
2.808532000000 -0.059720597761 -0.248896025757 0.936252049983 -0.293777952453 0.954935640750 -0.258269546819 -0.070835108936 -0.215500739437
2.809865111000 -0.059699247055 -0.248861042521 0.935874068701 -0.294070362133 0.955229031535 -0.257682639548 -0.070315047874 -0.214944908458
2.811198222000 -0.058852929623 -0.249032226045 0.935904403261 -0.293816573148 0.955127566091 -0.257812862858 -0.070213181931 -0.216088659987
2.812531333000 -0.059141211494 -0.249644107137 0.935548122621 -0.293737590405 0.954949708256 -0.256595605683 -0.070860806148 -0.216128590681
2.813864444000 -0.059825453410 -0.249981525880 0.935696812644 -0.293353824384 0.955057882974 -0.257141710598 -0.070018658812 -0.216738260367
2.815197555000 -0.058616131145 -0.250096896346 0.935631789633 -0.293656603712 0.953828960705 -0.256589037646 -0.070135299318 -0.217373657178
2.816530666000 -0.058306261200 -0.250821065448 0.934900512204 -0.294535070992 0.953523697011 -0.255910965417 -0.069366420276 -0.216388768035
2.817863777000 -0.059304522760 -0.250752549713 0.935201394973 -0.294254030882 0.953159422518 -0.256057127279 -0.069903543449 -0.217421697017
2.819196888000 -0.058172676451 -0.251327956951 0.934167843476 -0.294225617574 0.953460909894 -0.256021374044 -0.068910028554 -0.218452344515
2.820530000000 -0.058332476488 -0.252035947467 0.933854942507 -0.293174655671 0.953040973745 -0.255432965547 -0.068059807167 -0.219360162499
2.821863111000 -0.057511946842 -0.252071644303 0.933247696648 -0.295459916129 0.952392857793 -0.255381598851 -0.068147689268 -0.217490279939
2.823196222000 -0.059271631330 -0.252349484794 0.933443777253 -0.294004048943 0.953417203695 -0.255387308573 -0.068364990729 -0.219334092430
2.824529333000 -0.058544666418 -0.252749530507 0.932685514318 -0.294156283670 0.953658602355 -0.256496018024 -0.067912578674 -0.219013522797
2.825862444000 -0.057572495611 -0.253182917618 0.934701668215 -0.295456334847 0.953233136229 -0.255161888848 -0.069146138950 -0.218962322598
2.827195555000 -0.057096346406 -0.251957964769 0.934235611629 -0.296285712230 0.952291670022 -0.256519246437 -0.068692487712 -0.218639713841
2.828528666000 -0.058543865097 -0.250781324945 0.934768095685 -0.293985003690 0.951018026961 -0.256516673778 -0.067747054771 -0.221108955319
2.829861777000 -0.056663393782 -0.252662877059 0.933404720269 -0.294330272542 0.948694184831 -0.255746276288 -0.066306147791 -0.221329617936
2.831194888000 -0.055756302724 -0.255742170882 0.930668053327 -0.293325058566 0.948754938823 -0.253354716884 -0.066016624575 -0.223217349405
2.832528000000 -0.057120525232 -0.256581339950 0.930448357155 -0.294430758619 0.951368091900 -0.252948642094 -0.066363051430 -0.221003037357
2.833861111000 -0.056693047300 -0.256619528761 0.932380405268 -0.294139336794 0.950228304057 -0.251082458830 -0.068083714555 -0.221242432013
2.835194222000 -0.055435658577 -0.254807055501 0.932496643980 -0.294896419380 0.948297396621 -0.255122642276 -0.066350665936 -0.222456678112
2.836527333000 -0.053712110079 -0.255186825675 0.930190622988 -0.296867614731 0.947871526884 -0.255374786394 -0.065600805383 -0.221368524191
2.837860444000 -0.056275436095 -0.257128402014 0.932745141154 -0.295026960279 0.949809955808 -0.253037001715 -0.066003485279 -0.222175474249
2.839193555000 -0.053910054992 -0.259007031324 0.928990812224 -0.294260685091 0.947566351411 -0.251720016628 -0.064600439639 -0.223636600079
2.840526666000 -0.055337172741 -0.257918837278 0.929839880342 -0.295722044401 0.949004801529 -0.253170208644 -0.065571919847 -0.222169355428
2.841859777000 -0.054244477388 -0.259581404071 0.928966387346 -0.296450525174 0.947596524073 -0.252895448291 -0.063318257832 -0.222615526442
2.843192888000 -0.054944214842 -0.257957517001 0.930748767852 -0.296798749839 0.948998454154 -0.251320852296 -0.064518635398 -0.222521977096
2.844526000000 -0.054484194724 -0.259947931773 0.928461304047 -0.295006052249 0.945937204582 -0.251596732534 -0.063086828866 -0.225340193356
2.845859111000 -0.055585739931 -0.260680145803 0.930560228252 -0.293338826707 0.947017690345 -0.250444181733 -0.064867985354 -0.226149607640
2.847192222000 -0.053323609729 -0.261278756560 0.927839212312 -0.294896164104 0.945289870422 -0.250976970743 -0.062573524072 -0.226340561994
2.848525333000 -0.053784661466 -0.261907042789 0.927551779214 -0.295907538184 0.945790363126 -0.250188909664 -0.062811498729 -0.225707616760
2.849858444000 -0.052969083377 -0.261356359026 0.926146779357 -0.296691837662 0.943916016472 -0.252305227873 -0.061660971896 -0.224655132813
2.851191555000 -0.053692976587 -0.263193544869 0.928544554018 -0.295929855951 0.945822142142 -0.249470275962 -0.062861872873 -0.226235340276
2.852524666000 -0.053945495824 -0.262282559918 0.926313399311 -0.295943813594 0.946622404288 -0.251305034821 -0.061266738948 -0.226571257630
2.853857777000 -0.051649770655 -0.262342515461 0.926503177463 -0.297051540766 0.942563797399 -0.250230416105 -0.061258825614 -0.227056310032
2.855190888000 -0.052738525823 -0.263022882919 0.927148807362 -0.297204450104 0.944340211997 -0.251147213732 -0.061470219866 -0.225510875021
2.856524000000 -0.053657447659 -0.265215686082 0.926725413627 -0.296576368467 0.944785625700 -0.247589532447 -0.061735307290 -0.228882419258
2.857857111000 -0.050327134201 -0.264940705730 0.923244125857 -0.296575163697 0.941823908070 -0.249993279344 -0.058996035780 -0.227008547234
2.859190222000 -0.050219835403 -0.267951811392 0.920711016420 -0.293549642770 0.943627452731 -0.247650137540 -0.058162867016 -0.229889957493
2.860523333000 -0.053507901654 -0.267160389894 0.925191594993 -0.295080156449 0.944846893411 -0.249454710953 -0.060709533195 -0.229611667604
2.861856444000 -0.052543858534 -0.266759850332 0.923664085232 -0.295392386407 0.942975829229 -0.247387173217 -0.060469532568 -0.230628452113
2.863189555000 -0.051552127434 -0.264549786291 0.921844243176 -0.295428541558 0.941546784694 -0.253502331064 -0.058155956940 -0.228337741488
2.864522666000 -0.052823619593 -0.265231190289 0.922947960933 -0.296454761695 0.944990576240 -0.251954289617 -0.059820348455 -0.229230997473
2.865855777000 -0.050816745879 -0.271560474705 0.918797931614 -0.294402909836 0.940349830534 -0.245196942838 -0.055257115715 -0.231663263432
2.867188888000 -0.049736704280 -0.271167816564 0.923293217072 -0.294065856976 0.941506250839 -0.245734800067 -0.059146808170 -0.233013913692
2.868522000000 -0.048886469523 -0.268390055475 0.917800469530 -0.300623888463 0.939058400468 -0.247800398483 -0.055081079534 -0.229338800943
2.869855111000 -0.049600917138 -0.271528353872 0.918658989597 -0.295874063822 0.938263202597 -0.245545369690 -0.054517929887 -0.232545599863
2.871188222000 -0.048844247926 -0.269891477066 0.916403082809 -0.295669621482 0.939575428817 -0.248184135777 -0.053940282677 -0.232840710805
2.872521333000 -0.050788628439 -0.271979384100 0.917682311900 -0.296062958530 0.940571774204 -0.246324718967 -0.053909110085 -0.233162763993
2.873854444000 -0.048546460311 -0.272638486718 0.917726193438 -0.296318085696 0.938346336963 -0.246326844185 -0.054159987857 -0.234061617035
2.875187555000 -0.046602766302 -0.273086273005 0.913644240048 -0.294929224824 0.936817794324 -0.245524167330 -0.052376744953 -0.235188521803
2.876520666000 -0.047000877250 -0.273686308391 0.916267774065 -0.294003870090 0.934541558863 -0.246240362581 -0.052077880123 -0.235397468727
2.877853777000 -0.049095711818 -0.276645985850 0.914667720843 -0.294594529425 0.938269006130 -0.242059170019 -0.052530003100 -0.237047975417
2.879186888000 -0.046140734744 -0.276781398746 0.914028575657 -0.291155832293 0.934513901781 -0.243874186907 -0.051198276805 -0.238285557279
2.880520000000 -0.046522597756 -0.277264820453 0.913798673709 -0.293522754654 0.935731849690 -0.242401834873 -0.051314501793 -0.238229967684
2.881853111000 -0.049866391416 -0.278303631526 0.914284579021 -0.293317829217 0.937653362564 -0.241997314002 -0.051479903778 -0.238800741757
2.883186222000 -0.048812224086 -0.278840344929 0.911819193485 -0.294343928688 0.938531444381 -0.242249139302 -0.050983465047 -0.239264711011
2.884519333000 -0.049156923214 -0.280293862415 0.911112445092 -0.290723029452 0.936265491443 -0.240895105076 -0.050016281408 -0.241003493498
2.885852444000 -0.049991728679 -0.282120022509 0.911560053777 -0.288695581016 0.938145048017 -0.240752679755 -0.050192472205 -0.242670190035
2.887185555000 -0.048235946338 -0.280614961206 0.909818612172 -0.292356064534 0.934246628777 -0.241093263961 -0.048256235605 -0.241786622758
2.888518666000 -0.046695655228 -0.282336199133 0.909768304208 -0.289657863565 0.934142853835 -0.240604381283 -0.048564258999 -0.243953742636
2.889851777000 -0.049645066004 -0.283839549583 0.909402910588 -0.287075022006 0.936567302250 -0.237864012867 -0.048192742672 -0.246227430192
2.891184888000 -0.048662443974 -0.285481911568 0.910317399322 -0.289134225749 0.935938640875 -0.236595438551 -0.049430846491 -0.245307910560
2.892518000000 -0.048606231607 -0.284018794141 0.908265768294 -0.287348036888 0.935310464840 -0.238873960894 -0.048160336357 -0.247293497285
2.893851111000 -0.046534207165 -0.285784329616 0.907781452329 -0.285837153935 0.931350986244 -0.238263787239 -0.046891632317 -0.248054741784
2.895184222000 -0.049787799836 -0.287957093642 0.908359207013 -0.289370063540 0.938122906886 -0.234788058842 -0.048613440041 -0.247110442568
2.896517333000 -0.049726465080 -0.286044226949 0.909592152067 -0.287703983659 0.935770796906 -0.238074730814 -0.048657508539 -0.248973429781
2.897850444000 -0.051837460332 -0.288635694014 0.909129393575 -0.286172574101 0.936883222885 -0.234951106883 -0.048460959263 -0.250822952974
2.899183555000 -0.051153893114 -0.289799105285 0.910982082714 -0.282514551543 0.936811261718 -0.233981880437 -0.049818222800 -0.252961218530
2.900516666000 -0.052277184824 -0.289269045691 0.910121738491 -0.283764571225 0.937244520492 -0.234778048071 -0.049419637050 -0.253800741969
2.901849777000 -0.052819722086 -0.291524351122 0.913153524186 -0.282862101324 0.937222848188 -0.232782766164 -0.051292212657 -0.254525511358
2.903182888000 -0.052619380927 -0.292588649474 0.909173230777 -0.283419803400 0.938708758645 -0.232539467772 -0.049880207450 -0.254585479623
2.904516000000 -0.051803255229 -0.293153123255 0.909337051552 -0.282961228902 0.936735918760 -0.233970659228 -0.049593428799 -0.255691079597
2.905849111000 -0.053066499661 -0.290017223845 0.910280227901 -0.285200121274 0.937467469807 -0.235336063673 -0.050275697090 -0.255337189928
2.907182222000 -0.053848783993 -0.291537007879 0.911232836084 -0.281040829097 0.937456505008 -0.234301105970 -0.050699935372 -0.258174132879
2.908515333000 -0.054198326541 -0.293120751922 0.911417884618 -0.279520346090 0.938282116870 -0.234908376910 -0.051205685896 -0.259247257338
2.909848444000 -0.056426761391 -0.292987148934 0.912701003967 -0.281155166197 0.939597592649 -0.234778538556 -0.051948309361 -0.258971584658
2.911181555000 -0.055419026123 -0.293103788201 0.912725998458 -0.280683014218 0.938322317111 -0.235624303863 -0.052121520855 -0.260165282971
2.912514666000 -0.056992319996 -0.295547098575 0.913511871879 -0.281113189783 0.941412530854 -0.231828717578 -0.053199219153 -0.260048911585
2.913847777000 -0.057219602593 -0.294582449054 0.911570271492 -0.278548689066 0.940181848926 -0.233123948814 -0.052083792670 -0.262603443686
2.915180888000 -0.057949032191 -0.296384110504 0.912918800612 -0.279714359462 0.941487296739 -0.231131791005 -0.053964468836 -0.261604040967
2.916514000000 -0.059629639984 -0.296022936974 0.912710191097 -0.277661985082 0.942597282089 -0.230642537580 -0.054497165443 -0.263923299075
2.917847111000 -0.058141155037 -0.293784777068 0.911987092439 -0.278428156365 0.940603436734 -0.234677080598 -0.053070774145 -0.264259977845
2.919180222000 -0.062102220791 -0.294984862838 0.914261365130 -0.279467556903 0.944983259353 -0.233175949109 -0.055798319954 -0.263411167056
2.920513333000 -0.062602999567 -0.296656147423 0.913402610755 -0.278467792143 0.946377860537 -0.232601967329 -0.055510376238 -0.263995675632
2.921846444000 -0.064002067251 -0.295592326121 0.915672866558 -0.278468886882 0.946591479642 -0.234637213501 -0.056710573591 -0.264619564957
2.923179555000 -0.062974057942 -0.296298312689 0.915948967146 -0.276470517964 0.943975818152 -0.234486882106 -0.057623210754 -0.265766265209
2.924512666000 -0.063510023167 -0.295937720834 0.916301895268 -0.275756844112 0.944510750987 -0.235095889307 -0.058335041518 -0.267628703106
2.925845777000 -0.064793350894 -0.295582563384 0.919768448355 -0.280021941451 0.945441684068 -0.235884574262 -0.060940187090 -0.264953396421
2.927178888000 -0.068006815998 -0.296382260196 0.919376752375 -0.277703619763 0.950817688815 -0.234371763058 -0.061018873782 -0.267296842018
2.928512000000 -0.067347613347 -0.296224650768 0.919447909873 -0.277537009955 0.948542762320 -0.234875020686 -0.060858260483 -0.266905194465
2.929845111000 -0.067454398105 -0.295437544884 0.918480832953 -0.276639735806 0.948121435879 -0.234004160037 -0.060791145060 -0.268643750235
2.931178222000 -0.068883203949 -0.293907215821 0.918999086989 -0.276584930600 0.949016180956 -0.238251411226 -0.059853880204 -0.268538332394
2.932511333000 -0.069725056064 -0.295036894315 0.922462052735 -0.278894457901 0.950084350900 -0.236875393199 -0.063799801409 -0.266821714577
2.933844444000 -0.070102275751 -0.293748124392 0.920927260474 -0.278693457046 0.949724464070 -0.239092597498 -0.062478828462 -0.266402267069
2.935177555000 -0.070544218124 -0.292827489992 0.920212523198 -0.277067838983 0.949100530841 -0.240484574250 -0.062150191950 -0.269576300642
2.936510666000 -0.072170967719 -0.292043592930 0.920897086942 -0.278586093882 0.951999264806 -0.241442142927 -0.063906685104 -0.267417266775
2.937843777000 -0.072886163945 -0.289992261032 0.922099006947 -0.277324993549 0.952198237673 -0.245969335385 -0.064178526049 -0.269242223873
2.939176888000 -0.075012817324 -0.289355266918 0.926494704016 -0.281115641334 0.952828015084 -0.244447784912 -0.067194672044 -0.265486382114
2.940510000000 -0.074008379213 -0.285694416017 0.925585756560 -0.281816517032 0.952268053963 -0.250160403044 -0.067480794467 -0.264425230842
2.941843111000 -0.075534145536 -0.286235186907 0.926257274956 -0.282745577079 0.954797542842 -0.250163160497 -0.066866431214 -0.265298759336
2.943176222000 -0.075151404206 -0.285651052975 0.926225445367 -0.282906237828 0.952066349437 -0.249906095969 -0.067339373944 -0.263952720801
2.944509333000 -0.075445710192 -0.283898005630 0.925743909307 -0.283388630518 0.954092169759 -0.253642312409 -0.067341310312 -0.264074475163
2.945842444000 -0.077017606372 -0.284130302679 0.927783776030 -0.285545526506 0.954695314306 -0.252586096893 -0.069466949585 -0.262178203983
2.947175555000 -0.075699632882 -0.283046678851 0.926839546325 -0.284085977486 0.953053609164 -0.255294836260 -0.068056939452 -0.265483598822
2.948508666000 -0.076953948453 -0.277707320346 0.929466679316 -0.285518167820 0.953791143066 -0.262185739282 -0.068415304933 -0.263586000208
2.949841777000 -0.077135900716 -0.280029208892 0.931514104605 -0.292196983397 0.954221677823 -0.257748959680 -0.072921969835 -0.257920323388
2.951174888000 -0.077992306476 -0.276013448396 0.928382534700 -0.289834930611 0.955347324645 -0.263890751751 -0.068795440162 -0.260456650627
2.952508000000 -0.077691047248 -0.281105009295 0.928463461826 -0.287479813627 0.955025548563 -0.257518404162 -0.069310802025 -0.263145341454
2.953841111000 -0.075613089540 -0.281954078060 0.925804708844 -0.287687006424 0.951018276236 -0.258984387952 -0.069892711862 -0.260152674712
2.955174222000 -0.077809617707 -0.280335399126 0.929230505570 -0.289178047624 0.951197080667 -0.260382303888 -0.072906989804 -0.259406721141
2.956507333000 -0.077538021636 -0.278523894041 0.927123486924 -0.290795610346 0.953782007499 -0.262692557441 -0.069560764378 -0.258325010749
2.957840444000 -0.080440883133 -0.273950839345 0.927400847222 -0.293745393355 0.957583898911 -0.266627810912 -0.070045144985 -0.257419404187
2.959173555000 -0.078276940928 -0.274965317138 0.929757165738 -0.292040867572 0.950641332434 -0.269439542336 -0.071556699005 -0.259704053326
2.960506666000 -0.082369914260 -0.275394822258 0.928751665533 -0.292310570521 0.958457889879 -0.266838238339 -0.069710905456 -0.257305425360
2.961839777000 -0.077613422691 -0.273925849628 0.926969780601 -0.295599251642 0.953800319089 -0.268054690421 -0.070068516987 -0.257607118687
2.963172888000 -0.076227829374 -0.274896673375 0.929195768308 -0.296610562391 0.949939631400 -0.268591994539 -0.072893830684 -0.254931205585
2.964506000000 -0.082583658144 -0.271519388352 0.930833092591 -0.294142477849 0.958128205662 -0.271875290508 -0.070653020297 -0.255072976365
2.965839111000 -0.078351557013 -0.271663317515 0.927820775025 -0.295616722630 0.952233085178 -0.273672360305 -0.070952819900 -0.256320567760
2.967172222000 -0.079465493847 -0.272896149343 0.925599571732 -0.296281511842 0.954476906508 -0.271862949580 -0.067967812797 -0.256124244611
2.968505333000 -0.080269556010 -0.271644786562 0.928977896057 -0.297403128234 0.953484253423 -0.274305056893 -0.071561227312 -0.255049958442
2.969838444000 -0.081110550474 -0.268105289821 0.931074526961 -0.299844504787 0.953938236401 -0.277112033718 -0.071657531508 -0.251915711028
2.971171555000 -0.077769296958 -0.271119335953 0.926831232578 -0.299685400933 0.951509093031 -0.276565044806 -0.070045679809 -0.255249987013
2.972504666000 -0.079052875628 -0.268418579832 0.926563545039 -0.304177610460 0.953458060399 -0.276878446107 -0.070789038145 -0.249584103462
2.973837777000 -0.080590535797 -0.266448703639 0.928836255355 -0.300327924960 0.954405598078 -0.281725605123 -0.070915975921 -0.252956380469
2.975170888000 -0.079080508255 -0.265582453603 0.929188054321 -0.302555383389 0.952136779433 -0.282222852444 -0.071957285125 -0.251875694264
2.976504000000 -0.082477515259 -0.265036547372 0.929247105246 -0.300689413487 0.957233288959 -0.283838796121 -0.071847479376 -0.251692151133
2.977837111000 -0.080218266981 -0.266055277994 0.928376219962 -0.302558623123 0.952016124412 -0.282268081028 -0.071342577092 -0.250441424401
2.979170222000 -0.079226197222 -0.265595763634 0.927550121337 -0.304594556671 0.953087610573 -0.285203649099 -0.071976737661 -0.249660581728
2.980503333000 -0.079620608459 -0.265785189806 0.929035651924 -0.305283009127 0.953107039600 -0.283471505843 -0.071517980937 -0.250245250651
2.981836444000 -0.080511455239 -0.264477310048 0.929644245027 -0.305735660726 0.953028486192 -0.285391143413 -0.072265927776 -0.248235917480
2.983169555000 -0.079193328900 -0.265325233184 0.927400599068 -0.305155696697 0.952156791971 -0.288172253802 -0.071201147451 -0.248846087231
2.984502666000 -0.077765767647 -0.265556119224 0.927092881138 -0.308373400223 0.951510432097 -0.285468245511 -0.070764435811 -0.246933967412
2.985835777000 -0.079522044712 -0.263324846711 0.929257006316 -0.305849635681 0.950817414546 -0.288712012526 -0.071932513482 -0.248214534533
2.987168888000 -0.079587319655 -0.264177683965 0.926333444718 -0.308636295337 0.951942292776 -0.286755752104 -0.070202241932 -0.247499892971
2.988502000000 -0.078842916927 -0.261612064934 0.923780571710 -0.305537828328 0.952282652804 -0.292706720628 -0.071669404933 -0.246837636215
2.989835111000 -0.078520114867 -0.267149233839 0.926910929468 -0.307211638170 0.949822451261 -0.286829918880 -0.069810606187 -0.248876628541
2.991168222000 -0.081244380753 -0.263483003646 0.927093251451 -0.306091447865 0.951279326350 -0.289580397611 -0.071716392438 -0.248138947116
2.992501333000 -0.077406759197 -0.265223190614 0.920656584256 -0.310933847064 0.950561022918 -0.291555496662 -0.066978150812 -0.247892531694
2.993834444000 -0.076032078037 -0.262153960053 0.928483835605 -0.311255422527 0.949635230117 -0.291343641265 -0.072896946286 -0.245190673708
2.995167555000 -0.077952398315 -0.261563418546 0.926313658572 -0.311977938526 0.949353632237 -0.292458798930 -0.071128261294 -0.244712173930
2.996500666000 -0.079664662744 -0.261604574566 0.926437050329 -0.310953714624 0.950060767519 -0.292699138897 -0.071502776081 -0.245578518398
2.997833777000 -0.079981853107 -0.258785291440 0.928000040961 -0.313565815799 0.952505566372 -0.296352817924 -0.073539290218 -0.243077348510
2.999166888000 -0.078932918394 -0.261728659367 0.926768854686 -0.311882839881 0.952653019839 -0.293812252491 -0.072254038257 -0.245139369574
3.000500000000 -0.081503188895 -0.263723347337 0.927969093456 -0.310629245388 0.954120665195 -0.292946191696 -0.073164237489 -0.244939910646
3.001833111000 -0.078717728167 -0.263693297414 0.927607036746 -0.310191199500 0.950228593717 -0.294170439691 -0.074084300377 -0.245534606201
3.003166222000 -0.082048519327 -0.261730120888 0.927538415431 -0.311902501645 0.953710706575 -0.296179229927 -0.074521705427 -0.244258277686
3.004499333000 -0.079093272083 -0.263906046997 0.926448821156 -0.311421454059 0.951570162670 -0.294038253671 -0.073250015179 -0.246238765037
3.005832444000 -0.079612823040 -0.260192326037 0.924361389754 -0.314103871297 0.951091911896 -0.301296566341 -0.073781987674 -0.241650141500
3.007165555000 -0.080730198049 -0.261399083468 0.929954332725 -0.313128639988 0.952683170319 -0.298896571779 -0.076247430430 -0.243080569691
3.008498666000 -0.079460753822 -0.260915405633 0.926836795669 -0.314692044938 0.951065719927 -0.297092952247 -0.074690587717 -0.243265596759
3.009831777000 -0.078645759710 -0.262860138281 0.925134803227 -0.315671583684 0.950607104445 -0.297474458067 -0.073522563021 -0.242915762937
3.011164888000 -0.079857818460 -0.262284099937 0.926522013730 -0.315127647980 0.950300888464 -0.297772457516 -0.075217178886 -0.243569738051
3.012497999000 -0.079463959305 -0.259745000006 0.927533181101 -0.317049833127 0.951649168878 -0.300942007170 -0.075963610216 -0.241528715779
3.013831111000 -0.079848083900 -0.262995628574 0.926905378018 -0.314560511113 0.952153976066 -0.299015015053 -0.076206218953 -0.244223209031
3.015164222000 -0.079112861349 -0.259935255186 0.929906709042 -0.314880055973 0.951558108159 -0.300807356426 -0.078299612531 -0.242657809408
3.016497333000 -0.079147038531 -0.259754163900 0.926784884147 -0.313397241130 0.948260635722 -0.302918933597 -0.076542631958 -0.243622191677
3.017830444000 -0.079820539940 -0.261717197395 0.928518526963 -0.316416186270 0.950852818041 -0.300067924232 -0.077454934065 -0.242792718786
3.019163555000 -0.081141699724 -0.263256610956 0.926472794242 -0.315122725759 0.950682230758 -0.299589061362 -0.077107942322 -0.243927887401
3.020496666000 -0.081538087836 -0.260404857071 0.929824026838 -0.314925784319 0.951973807088 -0.302919804883 -0.079481730374 -0.243101866423
3.021829777000 -0.079378733835 -0.261132914659 0.928022695812 -0.314221909569 0.949781226401 -0.300475657803 -0.078092630583 -0.245377820575
3.023162888000 -0.080856843856 -0.260484180286 0.926295265613 -0.315266045567 0.952845525634 -0.304119148754 -0.078031072336 -0.244594770781
3.024495999000 -0.081259612496 -0.260824865913 0.930012642760 -0.315351069113 0.951314412949 -0.305025213263 -0.079848317780 -0.243230344802
3.025829111000 -0.081820964553 -0.259769775465 0.928616771976 -0.319184462321 0.951524696959 -0.305873404095 -0.078814040614 -0.241343232643
3.027162222000 -0.080717461774 -0.262813064920 0.927099303932 -0.315821077120 0.951790064546 -0.300626495879 -0.079755319380 -0.245312210150
3.028495333000 -0.083322840597 -0.259722789481 0.930201403792 -0.317577432849 0.951609896187 -0.305412470996 -0.081789105830 -0.243619546143
3.029828444000 -0.081122396647 -0.260828598335 0.928730092293 -0.315323665529 0.951007260515 -0.304037627186 -0.080304057133 -0.245929528344
3.031161555000 -0.085238521429 -0.263884595133 0.930645290356 -0.315968344459 0.953999192502 -0.301882723713 -0.082193915081 -0.245476486638
3.032494666000 -0.083708873068 -0.262683756460 0.930270422422 -0.317072644370 0.953392940848 -0.302723749265 -0.082727250428 -0.245437339868
3.033827777000 -0.083598421363 -0.261448632657 0.927205682663 -0.315709396966 0.952333545696 -0.304896246888 -0.080923623702 -0.246629654695
3.035160888000 -0.083702204504 -0.263166839858 0.933225901899 -0.317411860752 0.951527297399 -0.301534301191 -0.083878065205 -0.246483441516
3.036493999000 -0.085191871271 -0.260426048476 0.930576136061 -0.316864896483 0.955466964795 -0.307409582441 -0.084226754941 -0.244477719678
3.037827111000 -0.081963027363 -0.262544267637 0.928844277613 -0.317526306660 0.948166936339 -0.306767153972 -0.081920078817 -0.246173805088
3.039160222000 -0.083259178359 -0.261752250737 0.929643311985 -0.316754399349 0.953741922057 -0.305200966637 -0.084277558678 -0.245048735978
3.040493333000 -0.083678951041 -0.262874329338 0.929432587151 -0.317743379659 0.952787260164 -0.304836182281 -0.083835551047 -0.244930554922
3.041826444000 -0.082529339036 -0.263072196776 0.931049508016 -0.318372045247 0.951518518150 -0.303623309027 -0.085702283444 -0.244326937633
3.043159555000 -0.081937280150 -0.263790790102 0.929786985179 -0.317513546490 0.952663999992 -0.303766642145 -0.085037875972 -0.245711985619
3.044492666000 -0.083978799402 -0.263610896809 0.931952078197 -0.317611779155 0.953684283124 -0.304200714495 -0.087029598927 -0.245853171838
3.045825777000 -0.083485001369 -0.262433798449 0.930873349985 -0.319663826372 0.951971576602 -0.305079602890 -0.085267275196 -0.246035894063
3.047158888000 -0.086317277761 -0.264441660622 0.932852425511 -0.317226888330 0.954381423096 -0.302667862950 -0.087567552423 -0.247198489213
3.048491999000 -0.085677562567 -0.264213580268 0.932733431582 -0.317861637256 0.954320352042 -0.303095598310 -0.088185231806 -0.246299059390
3.049825111000 -0.085521184345 -0.262883082201 0.933248600609 -0.317531106181 0.953643031177 -0.304701165487 -0.088325142557 -0.247015087321
3.051158222000 -0.084847013799 -0.263457334011 0.932175620900 -0.317696450865 0.954873070187 -0.305356797592 -0.088675989935 -0.247073054543
3.052491333000 -0.085816471975 -0.264951102068 0.933489688662 -0.318426139021 0.953632443002 -0.303258332637 -0.089369349915 -0.247936084022
3.053824444000 -0.086209019519 -0.263813088841 0.933186950841 -0.316934592296 0.955642333792 -0.304647914067 -0.089179178287 -0.248161121816
3.055157555000 -0.087781012708 -0.264436615162 0.934924083693 -0.318694643588 0.955717632203 -0.304287577107 -0.090322994404 -0.246908747465
3.056490666000 -0.086449855171 -0.266160237323 0.932801211088 -0.315809306756 0.954866421856 -0.303554022023 -0.090459716342 -0.249327251614
3.057823777000 -0.086661174681 -0.263989895041 0.933332999159 -0.318581718600 0.957256743852 -0.304475040793 -0.090504032326 -0.247843211671
3.059156888000 -0.087958706652 -0.266178441339 0.935170878596 -0.316819267737 0.956773398552 -0.303529997907 -0.092661860443 -0.248722688613
3.060489999000 -0.089351480145 -0.264897532790 0.935306072056 -0.317593385723 0.958939535605 -0.303711614553 -0.092578581977 -0.248839044504
3.061823111000 -0.089014913667 -0.264304296752 0.935250986986 -0.318680091831 0.957495515001 -0.305168395927 -0.092449248745 -0.249960213195
3.063156222000 -0.089490461253 -0.264200322764 0.935553361572 -0.318583455867 0.958294719777 -0.304744844217 -0.092557438590 -0.248968472067
3.064489333000 -0.089270358975 -0.264415360651 0.933727125542 -0.319533207052 0.957625981182 -0.303654134529 -0.092577956773 -0.249170720320
3.065822444000 -0.088333492220 -0.265962831392 0.935179172922 -0.317524761803 0.957402848511 -0.302560660582 -0.092951482597 -0.250138609844
3.067155555000 -0.089172735682 -0.266286909440 0.935883436807 -0.317770059169 0.957243757100 -0.302887880629 -0.093472634340 -0.249820575996
3.068488666000 -0.089620188411 -0.266575485465 0.935813739365 -0.316439595965 0.957494958963 -0.301864102560 -0.094611192504 -0.251579338119
3.069821777000 -0.091089787955 -0.265617912137 0.935473062705 -0.317252896493 0.958900363670 -0.302861291702 -0.095113462141 -0.251027692475
3.071154888000 -0.091939061184 -0.266042728742 0.938514322393 -0.317240614900 0.960065862639 -0.302497307521 -0.095466527370 -0.250925113182
3.072487999000 -0.091120952906 -0.266426550491 0.938453284906 -0.318886497050 0.959748889328 -0.303114042681 -0.095824652315 -0.251142568613
3.073821111000 -0.091300237767 -0.266917259378 0.937002972784 -0.318740926540 0.957961651501 -0.302677325530 -0.096013287617 -0.251898627722
3.075154222000 -0.091633074268 -0.266074330543 0.937299325565 -0.317560100841 0.958352538764 -0.302846068131 -0.095396596046 -0.252716324509
3.076487333000 -0.093075967277 -0.267156353097 0.939306170512 -0.317640628643 0.960223984798 -0.302270717074 -0.098698452026 -0.252771220744
3.077820444000 -0.091646157455 -0.269216642625 0.939636633483 -0.314587646235 0.958586456041 -0.299614348803 -0.097743913782 -0.255557395714
3.079153555000 -0.092389517380 -0.266870678979 0.938060151206 -0.316338910352 0.960373303995 -0.303967150920 -0.095401182060 -0.255341001962
3.080486666000 -0.093272130539 -0.267148510048 0.939377843165 -0.316778553884 0.959106653592 -0.301853148197 -0.097331679930 -0.255575121116
3.081819777000 -0.093143740676 -0.267545112216 0.937818411885 -0.318875358805 0.959850473405 -0.300503548007 -0.096802557087 -0.255286205913
3.083152888000 -0.093499678965 -0.267471847128 0.939008758462 -0.316565703886 0.961813836773 -0.302419532608 -0.097523961986 -0.255491949961
3.084485999000 -0.094690125804 -0.266380762774 0.938326130701 -0.318544746791 0.959744949759 -0.303531849952 -0.096375383355 -0.255675587876
3.085819111000 -0.093995881153 -0.266870019654 0.938306336218 -0.319018133881 0.960535926373 -0.302119383639 -0.096659300389 -0.255414575675
3.087152222000 -0.095821035387 -0.268182390982 0.940672583862 -0.316577786800 0.963019630376 -0.300976365334 -0.098279437851 -0.258196409925
3.088485333000 -0.093966135138 -0.266476010162 0.940400643250 -0.320023334321 0.960989497470 -0.302185235626 -0.099544340488 -0.253261145934
3.089818444000 -0.096721616620 -0.266164380663 0.943008292932 -0.321539008745 0.964444906701 -0.302613088834 -0.101931465604 -0.252736148588
3.091151555000 -0.095921635595 -0.266315804966 0.940506592806 -0.320997221777 0.963777034971 -0.303693122883 -0.100475991769 -0.252616236368
3.092484666000 -0.096701354589 -0.266921714903 0.940055243835 -0.318879032271 0.964471901744 -0.302147747928 -0.100538851214 -0.255446455406
3.093817777000 -0.096217495318 -0.265827332993 0.942818247172 -0.320848675961 0.963575228510 -0.304880243656 -0.103316097707 -0.254864806181
3.095150888000 -0.096528642204 -0.266897964439 0.942044362136 -0.320130787981 0.962684751424 -0.302998176216 -0.102604051058 -0.254802706320
3.096483999000 -0.097804989904 -0.267048922577 0.939088209425 -0.318868531270 0.964358076518 -0.302065411355 -0.099761606375 -0.257163827723
3.097817111000 -0.098503448685 -0.267097156781 0.942669270879 -0.319670001677 0.964779629279 -0.303241600487 -0.102252859770 -0.254865201159
3.099150222000 -0.097094468433 -0.266684809187 0.941586538347 -0.320164015984 0.963417388902 -0.303026845950 -0.102853699455 -0.255489521778
3.100483333000 -0.098759835677 -0.265604961755 0.942844460533 -0.323346914428 0.965481452412 -0.304113893786 -0.101232933433 -0.252713169185
3.101816444000 -0.098716820907 -0.268018539511 0.945084134411 -0.318477578950 0.964452999377 -0.302181358175 -0.105126769482 -0.258311351827
3.103149555000 -0.097436352307 -0.266211541218 0.943590133391 -0.322116662944 0.963699868832 -0.304014353780 -0.102994391265 -0.254710074351
3.104482666000 -0.098647885589 -0.266512924955 0.942173753427 -0.323562558953 0.965438684280 -0.302872633747 -0.102912262210 -0.253917826907
3.105815777000 -0.098419172385 -0.265322397962 0.945218206488 -0.324296290547 0.963948350286 -0.305000341572 -0.104182807762 -0.253657585179
3.107148888000 -0.100781566324 -0.267268647802 0.942925841645 -0.325001904490 0.967788791265 -0.301066668576 -0.103000266115 -0.254359601972
3.108481999000 -0.102199939304 -0.266468097379 0.944399751027 -0.322153313268 0.968964067742 -0.303715970952 -0.104265144353 -0.257330447326
3.109815111000 -0.100087313681 -0.267251970652 0.941361200552 -0.324140819059 0.966676982885 -0.302862774197 -0.104540811047 -0.254902383619
3.111148222000 -0.100648891070 -0.267631826949 0.942840145507 -0.322315429465 0.966054475332 -0.303225158240 -0.102748196553 -0.256337304751
3.112481333000 -0.099982514032 -0.268195768189 0.941957670189 -0.324688381230 0.965616850973 -0.300739398345 -0.102883722102 -0.255886119954
3.113814444000 -0.101012735693 -0.268674966841 0.944789106088 -0.322252713856 0.968108575460 -0.301890018266 -0.105671743164 -0.258115671211
3.115147555000 -0.100880650123 -0.265618338122 0.941997072423 -0.325535285836 0.968167323168 -0.304331320834 -0.103574431082 -0.256794033382
3.116480666000 -0.103132297999 -0.266242789930 0.945031893045 -0.324409898191 0.967647155160 -0.303483862606 -0.105478673620 -0.256522333473
3.117813777000 -0.100694716696 -0.266058999918 0.942699263888 -0.326879252343 0.966419871629 -0.306553709851 -0.103364093790 -0.255474096680
3.119146888000 -0.100739307084 -0.265920135625 0.942848532527 -0.325608758902 0.964771820585 -0.303992406754 -0.102804732230 -0.256674042468
3.120479999000 -0.101219736790 -0.269411458328 0.940607335034 -0.324242531920 0.965607157613 -0.301597902707 -0.101470273051 -0.256966126097
3.121813111000 -0.102910877140 -0.263374551533 0.945165711508 -0.328203646102 0.967673989490 -0.309400143781 -0.107308713122 -0.255527705595
3.123146222000 -0.102782897311 -0.265192174993 0.944301118610 -0.325517359378 0.967368994053 -0.304948783159 -0.104240190656 -0.257503413914
3.124479333000 -0.102888619883 -0.262183726582 0.945898484000 -0.328052915290 0.969080275692 -0.310099042521 -0.106561005585 -0.255919618813
3.125812444000 -0.102235490952 -0.265840082178 0.939699505768 -0.325757372012 0.968077415963 -0.304472739524 -0.103038628470 -0.258429110911
3.127145555000 -0.104775238269 -0.264153211750 0.946950985736 -0.330581001726 0.968868001202 -0.306152107747 -0.106039076185 -0.255617406125
3.128478666000 -0.100292127013 -0.262714619971 0.944535135482 -0.332454419398 0.962080943860 -0.308511397212 -0.103226036040 -0.253511347000
3.129811777000 -0.102382609152 -0.263331978041 0.940916405343 -0.332394579803 0.967580990575 -0.310179952878 -0.104598752731 -0.254412214109
3.131144888000 -0.101058245838 -0.264568858951 0.941451684860 -0.330047002665 0.964961497782 -0.305686423752 -0.101589344171 -0.257326587003
3.132477999000 -0.102545245104 -0.262763621487 0.939846453200 -0.332837318094 0.967105367506 -0.309313895716 -0.102171253019 -0.254293324313
3.133811111000 -0.100743507524 -0.262107187997 0.940785686422 -0.333003442377 0.964122901969 -0.311094279081 -0.103517677104 -0.254843311661
3.135144222000 -0.100475125405 -0.264628016029 0.940588128625 -0.331907504222 0.965131239435 -0.307274872659 -0.102604253235 -0.256090852994
3.136477333000 -0.103177426382 -0.263166700811 0.940404134568 -0.331563499364 0.967820863619 -0.309847960373 -0.103126048577 -0.257580396822
3.137810444000 -0.101793682841 -0.263880066620 0.938236740393 -0.333716799630 0.963566288962 -0.310093659534 -0.100083451706 -0.255313921320
3.139143555000 -0.101774765327 -0.262487324709 0.942284410574 -0.335796826339 0.965397263136 -0.311842601037 -0.103069693485 -0.254691108595
3.140476666000 -0.099721251187 -0.262449598398 0.938013960735 -0.336513000883 0.962315236993 -0.313137150782 -0.101095441738 -0.253795088738
3.141809777000 -0.100631086361 -0.260807984831 0.940255187388 -0.335831579753 0.964111013903 -0.311931311727 -0.100979627871 -0.254785948400
3.143142888000 -0.101609754993 -0.259914998429 0.939739311392 -0.337019253914 0.964206120504 -0.314703365546 -0.101087944212 -0.253854904094
3.144475999000 -0.099836845122 -0.260105310852 0.940461737657 -0.336639114215 0.962279598548 -0.316112637233 -0.102092645431 -0.254235599577
3.145809111000 -0.100461896337 -0.261271508410 0.937736729945 -0.338632573380 0.962913881398 -0.315931537541 -0.099384430795 -0.253126040426
3.147142222000 -0.102134235055 -0.262241182296 0.936188856114 -0.336104766775 0.963457190247 -0.313824102072 -0.099937800268 -0.256413046085
3.148475333000 -0.100482723732 -0.257841416576 0.941751470284 -0.335398181410 0.965903105261 -0.319794350658 -0.105009189395 -0.253771880012
3.149808444000 -0.102466213985 -0.259419013783 0.937826936815 -0.337831983840 0.964757532304 -0.318800040647 -0.099582152929 -0.255131377015
3.151141555000 -0.099135544484 -0.259308646614 0.937227897798 -0.338956420164 0.961568526080 -0.317008908465 -0.099461055593 -0.254089780466
3.152474666000 -0.101155776668 -0.258589213810 0.933381035841 -0.339457524466 0.962660273187 -0.320130502656 -0.096287067520 -0.253457686732
3.153807777000 -0.101748914590 -0.259730268933 0.937731563947 -0.339568851663 0.961240190765 -0.317925712255 -0.098539672007 -0.255074665834
3.155140888000 -0.097284098897 -0.260487460700 0.933752622530 -0.339155459719 0.958392930930 -0.319306803035 -0.096655416587 -0.254534887687
3.156473999000 -0.096688637961 -0.257031292928 0.935008932560 -0.338789033021 0.958054308403 -0.322161440031 -0.097899382490 -0.254520616626
3.157807111000 -0.098475730841 -0.258280752682 0.932326345873 -0.343337182399 0.958894730808 -0.321694814039 -0.095116942955 -0.252820728062
3.159140222000 -0.096363358140 -0.259472261641 0.934953864776 -0.340712985895 0.956757289087 -0.319570883791 -0.096490638169 -0.255019983591
3.160473333000 -0.097095402586 -0.258338531921 0.933660955258 -0.343621911366 0.958973418267 -0.322494790951 -0.094814576407 -0.253213022652
3.161806444000 -0.095640408906 -0.257366937975 0.933208569269 -0.342177554202 0.957019042478 -0.322947066540 -0.095436631724 -0.254007209653
3.163139555000 -0.095208976343 -0.260185297118 0.932932604919 -0.340123148388 0.955256900148 -0.321268619350 -0.094923714070 -0.255572963747
3.164472666000 -0.094793131182 -0.259018959256 0.928425446049 -0.343034514944 0.953788985517 -0.323402997174 -0.091845808355 -0.255056998177
3.165805777000 -0.093962606395 -0.255105649214 0.931285948541 -0.343187542287 0.954245714715 -0.328323583670 -0.094309009933 -0.253364551501
3.167138888000 -0.093492566265 -0.259955447012 0.929337521597 -0.345472785152 0.953392953252 -0.325557523778 -0.091331649219 -0.252620307142
3.168471999000 -0.093765992292 -0.258129626558 0.926959480013 -0.343360418529 0.953188692213 -0.326015021837 -0.092254159055 -0.255345825460
3.169805111000 -0.092956769572 -0.257666703521 0.927366409981 -0.343898532401 0.953120075199 -0.326875198104 -0.091377213816 -0.253853404324
3.171138222000 -0.096110956662 -0.256191757428 0.929128606935 -0.347570686377 0.954223275029 -0.327923669255 -0.091285129277 -0.252244793620
3.172471333000 -0.094392269685 -0.257975916644 0.927410808591 -0.346993256970 0.953607617983 -0.326174956179 -0.090657430488 -0.253909510880
3.173804444000 -0.094556780615 -0.256542029385 0.927208103954 -0.347801385660 0.953078508132 -0.329248848953 -0.089302914565 -0.253863288709
3.175137555000 -0.090584968287 -0.256406531338 0.925351994744 -0.345592060783 0.948353496690 -0.329767625203 -0.088906494481 -0.254327313760
3.176470666000 -0.090740297517 -0.254754688732 0.924890542250 -0.347081591501 0.949450634643 -0.331555290328 -0.088223688473 -0.254446681078
3.177803777000 -0.090298672310 -0.257007511398 0.924337802072 -0.343155388813 0.950718189181 -0.328535603954 -0.090086325251 -0.256863284135
3.179136888000 -0.088744166582 -0.257742656878 0.922252347770 -0.348335178785 0.948570157335 -0.330814185391 -0.088152713375 -0.254287787688
3.180469999000 -0.087114611876 -0.254387064648 0.923174849769 -0.346666392061 0.945207864592 -0.334169457712 -0.086965840342 -0.255773425548
3.181803111000 -0.091355925935 -0.257333935112 0.925503822169 -0.350088802889 0.948537766876 -0.332160605689 -0.088536138258 -0.254713898503
3.183136222000 -0.092519203690 -0.257129013117 0.922273725149 -0.347116219069 0.949684164546 -0.331712151768 -0.086098930720 -0.256576099375
3.184469333000 -0.090495712362 -0.258265360670 0.924829838740 -0.349092197933 0.948835603514 -0.330600302395 -0.090077926578 -0.256364236209
3.185802444000 -0.086839262629 -0.257266907309 0.924697056327 -0.347279742117 0.947016696222 -0.332872012374 -0.089209553564 -0.256596104058
3.187135555000 -0.087114190761 -0.257840447111 0.923726969628 -0.346113499239 0.945087641214 -0.335184088492 -0.086722925441 -0.257019809949
3.188468666000 -0.088275515530 -0.257574003264 0.922847831284 -0.349424690130 0.946243427632 -0.332694130284 -0.086022557348 -0.255751925511
3.189801777000 -0.084968379112 -0.259120643076 0.921783742999 -0.348431507878 0.941219743597 -0.331964658967 -0.086064438673 -0.255852726644
3.191134888000 -0.086353988070 -0.256323972863 0.919031403660 -0.349132158769 0.943206279340 -0.335427264825 -0.085554589691 -0.257774094056
3.192467999000 -0.085819450399 -0.255373658729 0.921317960542 -0.349289343839 0.942804273913 -0.335524543403 -0.086053546705 -0.256258149932
3.193801111000 -0.085174035388 -0.257278651959 0.918094092451 -0.349884962527 0.943182118759 -0.333264540137 -0.082239868920 -0.257689599924
3.195134222000 -0.084854395694 -0.259206114234 0.916190281363 -0.351823827925 0.942524339446 -0.333484156466 -0.081214842763 -0.257699126830
3.196467333000 -0.085123305068 -0.258568523784 0.919497096426 -0.348244925868 0.943018227708 -0.334201951860 -0.084429480034 -0.257919813906
3.197800444000 -0.083764487497 -0.258333812864 0.917008149394 -0.349784869712 0.939976780401 -0.334499319428 -0.082263894721 -0.257703253408
3.199133555000 -0.081429550761 -0.258752546445 0.917670835260 -0.351750386935 0.937536709119 -0.335749660011 -0.082167214581 -0.257266739806
3.200466666000 -0.084127224339 -0.258525283935 0.915770691907 -0.353764504484 0.939376337721 -0.335721297980 -0.081616577534 -0.257294271281
3.201799777000 -0.082135969161 -0.258288557437 0.915149746627 -0.353159035905 0.936645689762 -0.335152658366 -0.079962580730 -0.257779045573
3.203132888000 -0.081474349910 -0.261278621801 0.916089697870 -0.346999310024 0.936919055420 -0.335726819728 -0.081918702353 -0.260217405049
3.204465999000 -0.081525934848 -0.257337801734 0.916359533793 -0.352424397503 0.937634182620 -0.338288884400 -0.081447208598 -0.258047425787
3.205799111000 -0.081091700225 -0.261274449978 0.913046797115 -0.352140596060 0.936348697254 -0.332948676881 -0.079629953763 -0.259420328901
3.207132222000 -0.081612825875 -0.260477885431 0.918193288040 -0.351207533997 0.936848835218 -0.334908057246 -0.082200381857 -0.259217419754
3.208465333000 -0.079529731685 -0.260368086549 0.915222797500 -0.354621123243 0.935420264517 -0.337604235891 -0.081427570852 -0.258383592862
3.209798444000 -0.077984198357 -0.263522468440 0.913710855626 -0.351327865979 0.931969213105 -0.334547927420 -0.080608868764 -0.260205402611
3.211131555000 -0.078746651258 -0.257323278234 0.912548666786 -0.353513994389 0.934226864746 -0.340428929329 -0.079805865208 -0.260307227893
3.212464666000 -0.079471760057 -0.260735932280 0.911681339502 -0.354365317428 0.933448876930 -0.337897328219 -0.078444113064 -0.259562135032
3.213797777000 -0.078137106820 -0.262713162242 0.913668207602 -0.350544965709 0.931107822572 -0.337796959782 -0.080686262165 -0.260403440771
3.215130888000 -0.079698850888 -0.262604323966 0.915495582417 -0.349194555867 0.935248404848 -0.335918232165 -0.081572027632 -0.262755146524
3.216463999000 -0.081109630422 -0.262029552915 0.915420210420 -0.355610127672 0.932541890481 -0.337284244695 -0.081051021678 -0.258180150867
3.217797111000 -0.075699722999 -0.261082916268 0.910118821231 -0.352024237189 0.930807401094 -0.337737449064 -0.079193017343 -0.261530500498
3.219130222000 -0.077894333383 -0.261490989389 0.912590715920 -0.351502028100 0.932178364045 -0.341176639097 -0.080234343192 -0.262284840934
3.220463333000 -0.077576957849 -0.261700993101 0.910154001187 -0.352436468076 0.933531569198 -0.339628076861 -0.078324463502 -0.263680502094
3.221796444000 -0.076303647499 -0.262070377145 0.912968701859 -0.352908884565 0.929506200645 -0.342244685585 -0.080377896925 -0.261150642561
3.223129555000 -0.078316312454 -0.262661431165 0.909845659964 -0.354137317819 0.931178731316 -0.341360182830 -0.078659384741 -0.263102368214
3.224462666000 -0.074527270614 -0.268353184119 0.912096922547 -0.349432166635 0.926106403973 -0.337292912125 -0.079720916610 -0.262707093188
3.225795777000 -0.077419374082 -0.264003011984 0.911535229289 -0.352413286300 0.931202052291 -0.340868152575 -0.078862973810 -0.262824476038
3.227128888000 -0.074646019158 -0.266457121011 0.908873120606 -0.351160607183 0.927155178111 -0.337087063126 -0.077449698016 -0.264365780930
3.228461999000 -0.074916754775 -0.265871052356 0.906804093295 -0.352258326692 0.926972959536 -0.340076644226 -0.076970785118 -0.266238542817
3.229795111000 -0.078193411462 -0.268500785339 0.909764099525 -0.351636450751 0.928004859510 -0.337408138122 -0.078203457171 -0.262796429190
3.231128222000 -0.076013500494 -0.266726959086 0.909993588547 -0.353448277524 0.927423910668 -0.338289814154 -0.077297021041 -0.264142383441
3.232461333000 -0.076743616087 -0.265754482827 0.909177238533 -0.351308417109 0.928147461915 -0.338830068833 -0.076126276470 -0.264151270344
3.233794444000 -0.074753623585 -0.268562057538 0.909310131745 -0.352030948516 0.926437318890 -0.338527306773 -0.077852053452 -0.264071337449
3.235127555000 -0.073645442179 -0.268813673105 0.907451597774 -0.355008612913 0.925125103140 -0.339732865939 -0.077688707099 -0.262111294418
3.236460666000 -0.072365883450 -0.270310889144 0.907962033812 -0.352833700843 0.920374225557 -0.339670849269 -0.078502217305 -0.263840729433
3.237793777000 -0.072259156518 -0.270935546161 0.907893880231 -0.353886240924 0.922667113583 -0.339571963441 -0.077347339639 -0.264362432350
3.239126888000 -0.075158454363 -0.266057489509 0.909955791628 -0.353063416378 0.927384994184 -0.344488055856 -0.078608472828 -0.265485552007
3.240459999000 -0.072295335587 -0.269964334509 0.908982930365 -0.353196975749 0.925083828851 -0.341371885541 -0.078979314157 -0.264579500293
3.241793111000 -0.073034510808 -0.269784478601 0.908348429097 -0.354229810136 0.924742650311 -0.342022066425 -0.078736949275 -0.263922127236
3.243126222000 -0.074522410853 -0.269160192814 0.908917867214 -0.354042312973 0.925802443015 -0.341180127202 -0.078571526195 -0.266089153403
3.244459333000 -0.072461355414 -0.268587946766 0.907249466303 -0.356628566078 0.925869369461 -0.342184348216 -0.076944740551 -0.264428199042
3.245792444000 -0.074158032322 -0.271422415185 0.908660256065 -0.350927075528 0.925973660991 -0.341261721953 -0.080329479735 -0.267478992998
3.247125555000 -0.073935273107 -0.272041374082 0.908967495474 -0.353448961912 0.923678294499 -0.341458424454 -0.079267079681 -0.265917489749
3.248458666000 -0.072489092938 -0.272929847281 0.906912939048 -0.352945451532 0.922637260937 -0.340450722482 -0.078416839930 -0.268059180777
3.249791777000 -0.073209629088 -0.274319725032 0.906988566459 -0.351899762352 0.921953563689 -0.340840188222 -0.078863766689 -0.267534612529
3.251124888000 -0.072222720620 -0.273818574833 0.908083606673 -0.353972561920 0.922034045356 -0.342407419839 -0.079349941117 -0.266827233213
3.252457999000 -0.073763934040 -0.272192481188 0.907644569246 -0.353476803002 0.921908420411 -0.343038759334 -0.080147625689 -0.266675098596
3.253791111000 -0.072808083371 -0.273152684361 0.908492265601 -0.355694264031 0.922674885850 -0.342197230972 -0.079669946091 -0.265790947408
3.255124222000 -0.074016111757 -0.274994699800 0.906267489271 -0.350783704350 0.922648536216 -0.341648967270 -0.079732101203 -0.268096362019
3.256457333000 -0.072984242121 -0.274256985461 0.907272886868 -0.353401476341 0.923692883627 -0.342448912184 -0.079382329386 -0.268408906221
3.257790444000 -0.074213209173 -0.275035454146 0.907741388932 -0.352797941227 0.921740367735 -0.342191328371 -0.080641658728 -0.268516603448
3.259123555000 -0.073832088397 -0.278633603445 0.908184196477 -0.353617807563 0.920931375989 -0.339060453288 -0.080080057821 -0.268794365278
3.260456666000 -0.073851527262 -0.275814924925 0.907261720242 -0.353322847409 0.921207662084 -0.342044235809 -0.081482860537 -0.269109822045
3.261789777000 -0.073421255350 -0.277726693648 0.906675525771 -0.354194268769 0.920264956943 -0.342126886162 -0.079560207366 -0.268827305768
3.263122888000 -0.075031217610 -0.276587131029 0.907827772176 -0.354748976637 0.922779697091 -0.344035567592 -0.081387097632 -0.268046537529
3.264455999000 -0.072677315581 -0.276813855987 0.906966916553 -0.354209574616 0.920393593354 -0.343128254343 -0.080306106883 -0.269428815145
3.265789111000 -0.071356672186 -0.277525983908 0.906547000155 -0.354405618903 0.918343200563 -0.344766251761 -0.080333123858 -0.268505625042
3.267122222000 -0.071322924942 -0.277646739633 0.906217130305 -0.353043807901 0.918618719208 -0.343119487741 -0.081543846244 -0.270938430433
3.268455333000 -0.071679675454 -0.278342639282 0.908775874001 -0.354562474701 0.919132390720 -0.344159085248 -0.081867337459 -0.268982319049
3.269788444000 -0.071520478869 -0.279360898873 0.908790874733 -0.353783579692 0.917764429147 -0.341925739419 -0.082469710077 -0.269553204546
3.271121555000 -0.073174703266 -0.280759891016 0.907779753043 -0.353480364150 0.919543974249 -0.342630863720 -0.083114633966 -0.270005575660
3.272454666000 -0.072116838120 -0.277980015824 0.907129129364 -0.354567321037 0.919473929671 -0.345574562913 -0.083480273637 -0.270133448459
3.273787777000 -0.072843259747 -0.278477035810 0.906469005598 -0.353393228997 0.918550293824 -0.344685244617 -0.082710668385 -0.270719443187
3.275120888000 -0.070994299974 -0.279560949764 0.907684348952 -0.352649787947 0.918486293780 -0.345839630625 -0.083776402185 -0.269885407432
3.276453999000 -0.073408826929 -0.280747452294 0.907900576190 -0.355727699034 0.917361822112 -0.344967250775 -0.083416567802 -0.270196444833
3.277787111000 -0.074468270031 -0.281138330443 0.905610719807 -0.354252290190 0.919738798080 -0.345071444459 -0.083014595873 -0.271344900915
3.279120222000 -0.073322193553 -0.280200502726 0.906998572205 -0.355013805177 0.919292497872 -0.345032228265 -0.083229254413 -0.270629566126
3.280453333000 -0.072893090462 -0.280343676613 0.907040961833 -0.355042340596 0.918677706891 -0.345913865565 -0.082634661106 -0.270103085890
3.281786444000 -0.073128640841 -0.281616336631 0.907581046740 -0.354949771107 0.917752813054 -0.345763660859 -0.084826277968 -0.271817889390
3.283119555000 -0.075689039454 -0.280225697711 0.906934226709 -0.353195852729 0.920585212249 -0.347949799235 -0.085382827650 -0.271967200922
3.284452666000 -0.074893246026 -0.283285953956 0.908557212671 -0.355700006594 0.920000142605 -0.343487801083 -0.086266290488 -0.271113501718
3.285785777000 -0.075459884361 -0.283382211843 0.909060059554 -0.357468332399 0.920775275793 -0.341855897751 -0.087299937104 -0.270591910653
3.287118888000 -0.071536783053 -0.283955387631 0.904479166508 -0.352654718463 0.916048880366 -0.345662082285 -0.083823180500 -0.273202741627
3.288451999000 -0.075335593346 -0.283757003946 0.911425509369 -0.354759616262 0.918946860396 -0.344933209125 -0.089624118724 -0.272973130221
3.289785111000 -0.075512450659 -0.285448457588 0.911218003613 -0.355521008136 0.916627532345 -0.345573948028 -0.088082484858 -0.270905225853
3.291118222000 -0.074137386504 -0.282731446309 0.907611690220 -0.356650839667 0.917699485050 -0.345542893701 -0.086618201076 -0.270947548301
3.292451333000 -0.074243221554 -0.283601237739 0.907724788627 -0.352665225443 0.915537189909 -0.344970520124 -0.087838724730 -0.274343536955
3.293784444000 -0.072439822575 -0.283599667415 0.908063340178 -0.353072686544 0.916999064347 -0.348243659381 -0.088629292673 -0.275319363895
3.295117555000 -0.077681803664 -0.284034188180 0.908135510682 -0.352345650134 0.919357531382 -0.343925645604 -0.090792645429 -0.275170568711
3.296450666000 -0.075682304301 -0.284372642721 0.906467208927 -0.354830993884 0.916267707177 -0.345660511087 -0.088753700555 -0.274636518982
3.297783777000 -0.073425065407 -0.287460689130 0.908722553345 -0.352305810404 0.916796244737 -0.346366631942 -0.089579207284 -0.275428976398
3.299116888000 -0.075928092199 -0.286339891713 0.907714031392 -0.355078450346 0.916864574719 -0.344963723458 -0.090814835456 -0.275692920730
3.300449999000 -0.077015390021 -0.282387558698 0.908497249286 -0.357121251431 0.921694391498 -0.345832866645 -0.091893101783 -0.275338901934
3.301783111000 -0.074628294444 -0.282858883484 0.907871264579 -0.356202895216 0.918751299429 -0.348221005515 -0.088324004001 -0.273099597110
3.303116222000 -0.078753346776 -0.284107004069 0.909211227501 -0.359940492456 0.917210044942 -0.350796957233 -0.090796767511 -0.272199580014
3.304449333000 -0.077492840113 -0.283438877391 0.911099506033 -0.358537690423 0.916764478994 -0.352653824335 -0.090754930223 -0.272137242960
3.305782444000 -0.076604516729 -0.284328067565 0.905714727198 -0.358070388917 0.916109717502 -0.350260737694 -0.088636734877 -0.275181856125
3.307115555000 -0.079506113862 -0.285135162384 0.907088733860 -0.359750282619 0.918349137270 -0.347772234770 -0.092194298197 -0.275611190923
3.308448666000 -0.076190805959 -0.284757566067 0.907909728224 -0.354028744464 0.918547915468 -0.347662268314 -0.094206220908 -0.277486186061
3.309781777000 -0.076584356605 -0.285820162426 0.908511857528 -0.355592047897 0.918781536164 -0.348803186627 -0.091139290489 -0.276836102944
3.311114888000 -0.075360303348 -0.285686906515 0.908104292056 -0.355992898150 0.915195450451 -0.348972605899 -0.091630460690 -0.276155598170
3.312447999000 -0.075442484559 -0.287376990393 0.906581422951 -0.355356459199 0.914384873899 -0.348570248517 -0.094263298500 -0.279119029663
3.313781111000 -0.076812546933 -0.283043321690 0.910928150296 -0.360525396599 0.916801931966 -0.348514314609 -0.094654853124 -0.275411015777
3.315114222000 -0.077736625769 -0.288516876724 0.905293583193 -0.357318101488 0.914421282385 -0.346273804854 -0.091199190197 -0.280483497604
3.316447333000 -0.078350423148 -0.284743161712 0.909915339924 -0.359155254597 0.920812229935 -0.353103826228 -0.093598754408 -0.277205991962
3.317780444000 -0.075559778090 -0.287582608948 0.907779732643 -0.354957412302 0.918073809687 -0.348938284507 -0.096860355412 -0.281104799860
3.319113555000 -0.073752316584 -0.285350783393 0.906633580885 -0.357136711487 0.912252199510 -0.352399021175 -0.092002927259 -0.280671809827
3.320446666000 -0.079755120293 -0.285303220990 0.908005366507 -0.360670213984 0.918644191748 -0.350671834178 -0.094001096229 -0.280910185537
3.321779777000 -0.077614722109 -0.284925047656 0.908954679026 -0.358325033759 0.912057731349 -0.351481029341 -0.096250454691 -0.278862248287
3.323112888000 -0.080203711419 -0.287850266138 0.911439202989 -0.360390063567 0.918531665147 -0.349712518109 -0.097136086361 -0.279287432883
3.324445999000 -0.078314622222 -0.285305395268 0.909982662281 -0.361008297591 0.918106577720 -0.350328381025 -0.097300404191 -0.279064017535
3.325779111000 -0.076974576440 -0.286495563232 0.907803313232 -0.357662653165 0.917366970514 -0.349277007112 -0.097296857744 -0.280870512343
3.327112222000 -0.081177812592 -0.286938938003 0.909798548702 -0.358503084964 0.918020408053 -0.349130194380 -0.096162621254 -0.282563537191
3.328445333000 -0.078513123657 -0.286872518942 0.906679518083 -0.360507548739 0.918774962840 -0.353301172389 -0.096884981164 -0.279005823891
3.329778444000 -0.078536375956 -0.284256775870 0.912232058759 -0.360049438930 0.917263590135 -0.354006119683 -0.094948731276 -0.278291233966
3.331111555000 -0.079350723968 -0.286758682810 0.913549063454 -0.360052013826 0.917126482909 -0.353343019550 -0.098537192351 -0.276106519827
3.332444666000 -0.078744506217 -0.288331610315 0.912903265537 -0.359105580963 0.919686830370 -0.353273977500 -0.097490924925 -0.282034280039
3.333777777000 -0.081085036964 -0.287393171106 0.911879507698 -0.361973293428 0.917529956709 -0.349602265318 -0.099406926446 -0.281114646266
3.335110888000 -0.078508115607 -0.284369049768 0.908654101295 -0.363674792328 0.915189469841 -0.352481034113 -0.098881740521 -0.282572706312
3.336443999000 -0.081924578898 -0.282208650615 0.910656147471 -0.363597820237 0.915973562094 -0.357901332344 -0.100125803951 -0.281041978823
3.337777111000 -0.077834245466 -0.284897222195 0.907991053980 -0.359537561922 0.919651827760 -0.350984838245 -0.099715863341 -0.283836131151
3.339110222000 -0.079416580065 -0.287674941922 0.911396320089 -0.360511984831 0.912155497492 -0.349610837193 -0.099334415659 -0.285800246534
3.340443333000 -0.076308342173 -0.286383361636 0.910406769851 -0.358951612684 0.915558221660 -0.352502516702 -0.099741996516 -0.283833777509
3.341776444000 -0.081977177943 -0.283064824665 0.911713820653 -0.362082321556 0.919065803494 -0.357076323470 -0.100691567575 -0.282900730999
3.343109555000 -0.078684647771 -0.284380527066 0.910116326016 -0.361406112415 0.915035584620 -0.351932743638 -0.099273809210 -0.283731226065
3.344442666000 -0.080475519701 -0.281495488433 0.912945672103 -0.363773386788 0.917417625718 -0.356852230282 -0.100728830357 -0.281304580919
3.345775777000 -0.080880338122 -0.285659944442 0.911459617064 -0.359378017491 0.916522209310 -0.351864797735 -0.100958600239 -0.285928819424
3.347108888000 -0.078579775737 -0.284518886033 0.908706209455 -0.364894058500 0.918087658491 -0.353206472930 -0.098672782237 -0.283300556511
3.348441999000 -0.079870045141 -0.286127313144 0.913609368964 -0.362717986515 0.914229598901 -0.352015967323 -0.102931713491 -0.281911888785
3.349775111000 -0.078513992022 -0.284640221099 0.913156668390 -0.362587748604 0.913833856706 -0.353205288675 -0.101307459848 -0.283150575563
3.351108222000 -0.080579275515 -0.282056241609 0.912442222377 -0.364827879653 0.916448102533 -0.356712441834 -0.101039029992 -0.282528738683
3.352441333000 -0.080336750056 -0.283898308917 0.910583849705 -0.359336383526 0.918163909772 -0.352908469403 -0.100710138370 -0.285260812588
3.353774444000 -0.079759958084 -0.281224397569 0.910968791913 -0.361775634160 0.919601804558 -0.357707524134 -0.102914814253 -0.285362793132
3.355107555000 -0.081715772798 -0.282585354526 0.912127661813 -0.365062243980 0.915090607060 -0.353895903280 -0.100525619061 -0.282891800056
3.356440666000 -0.080696717779 -0.284203590926 0.912091723838 -0.362462721433 0.917662149228 -0.354368087462 -0.101978910169 -0.286846647929
3.357773777000 -0.081139343278 -0.281923743623 0.911361145692 -0.363588377190 0.918438399395 -0.355790653082 -0.101505240962 -0.287148031033
3.359106888000 -0.082183507096 -0.281027679167 0.912742554018 -0.365673206321 0.918028488215 -0.356380882332 -0.101291595112 -0.283716804962
3.360439999000 -0.082083434474 -0.279550420814 0.913292400345 -0.366004960961 0.917493170629 -0.359804602323 -0.103122895902 -0.284897333464
3.361773111000 -0.082969995548 -0.280822075405 0.913464989831 -0.366045070706 0.918014523927 -0.357141152970 -0.104046728683 -0.285135450166
3.363106222000 -0.081770723394 -0.280003347506 0.913993594263 -0.365311782999 0.918945555435 -0.356648721861 -0.103662482875 -0.285005365776
3.364439333000 -0.080821481264 -0.280035809327 0.910891814531 -0.365869927107 0.917128298235 -0.357531068647 -0.102948128324 -0.285855359637
3.365772444000 -0.080959032380 -0.281108458303 0.911929074339 -0.365880137466 0.916835516360 -0.356813871677 -0.103236415133 -0.283753800549
3.367105555000 -0.082269186636 -0.281083541123 0.913274423246 -0.365881078726 0.918074649050 -0.355723794277 -0.104391841464 -0.286489676706
3.368438666000 -0.081252253582 -0.280152317782 0.912250324814 -0.367018028906 0.917843878938 -0.358295699435 -0.105005124252 -0.285130588728
3.369771777000 -0.079331297160 -0.280834449436 0.911121599665 -0.365827197799 0.916899771177 -0.357279464850 -0.103640392244 -0.287423552429
3.371104888000 -0.082045201464 -0.280744109049 0.913277146538 -0.367067180602 0.917823986915 -0.356715232609 -0.103222601468 -0.286885727240
3.372437999000 -0.080603673471 -0.280661461152 0.912778106965 -0.366957625353 0.917803520700 -0.355803049927 -0.103519168608 -0.287192799936
3.373771111000 -0.080502259885 -0.281135117472 0.912019294903 -0.366843450848 0.916434084516 -0.358534701846 -0.103312042443 -0.287229152197
3.375104222000 -0.081029615620 -0.279036519079 0.911587133970 -0.367103613287 0.917945058206 -0.358301657062 -0.102967217279 -0.286967447625
3.376437333000 -0.079867773022 -0.279625496374 0.912443175507 -0.368831959889 0.916475041005 -0.359230645852 -0.103974171430 -0.286620649762
3.377770444000 -0.082434488491 -0.278825325162 0.912834553014 -0.369035827734 0.918764556955 -0.359736467643 -0.104904911949 -0.286444593131
3.379103555000 -0.081163324781 -0.279334782972 0.911880362022 -0.367729083970 0.916538032751 -0.359486096616 -0.104211058948 -0.287380993687
3.380436666000 -0.082984761280 -0.279347729739 0.913418567629 -0.368837411557 0.918149401988 -0.359461671585 -0.105640642245 -0.287656821202
3.381769777000 -0.081150698788 -0.278798626744 0.912506606001 -0.369064131421 0.917089772871 -0.358926085614 -0.104701914555 -0.287352698760
3.383102888000 -0.081113390803 -0.280012222564 0.912213252133 -0.369445650125 0.916926460111 -0.358718544292 -0.105132341755 -0.289088888941
3.384435999000 -0.081246812356 -0.279282120721 0.912685823984 -0.369037731261 0.917429560809 -0.358578660493 -0.105359427653 -0.287961575551
3.385769111000 -0.079774204750 -0.278470943796 0.910050038713 -0.369624447374 0.915872037313 -0.360630531182 -0.102834391679 -0.288365264836
3.387102222000 -0.080613734368 -0.279296523450 0.911981325054 -0.369192422657 0.917217100832 -0.358786390437 -0.105968941078 -0.288442736909
3.388435333000 -0.080451863958 -0.278163145555 0.911547577262 -0.369724578461 0.917264195897 -0.358594935827 -0.104006572742 -0.288812326966
3.389768444000 -0.078749902294 -0.279137813944 0.909051814418 -0.370774571083 0.913620951961 -0.360427518790 -0.102357957084 -0.287946073282
3.391101555000 -0.079373774459 -0.278654118837 0.909864844014 -0.371201442174 0.914353783923 -0.360137487673 -0.102259112549 -0.287751481461
3.392434666000 -0.079730709547 -0.278991315063 0.910105449038 -0.370725421342 0.914206164870 -0.359544976687 -0.103644520417 -0.289381300045
3.393767777000 -0.081375113805 -0.279516833450 0.910050920787 -0.371609893730 0.915369919805 -0.359136841945 -0.103909622473 -0.289434636402
3.395100888000 -0.079225007089 -0.278544149424 0.909340147586 -0.371317340303 0.913431704393 -0.360313688222 -0.102858972195 -0.287615300365
3.396433999000 -0.078843819190 -0.277714471109 0.908320665200 -0.372327050044 0.912849075441 -0.362270324328 -0.102237436730 -0.288124376707
3.397767111000 -0.078789000234 -0.279911115934 0.909762262729 -0.372775219441 0.913390989884 -0.360450767575 -0.102720111799 -0.289483249707
3.399100222000 -0.077505274881 -0.277844412595 0.908350452300 -0.372739034669 0.913811968950 -0.362762730357 -0.102490191914 -0.289822469516
3.400433333000 -0.078832758213 -0.278743307213 0.908293136033 -0.373054819758 0.912627198348 -0.361431264147 -0.102822155602 -0.288363407236
3.401766444000 -0.079924029937 -0.278517395579 0.906626405356 -0.373765888468 0.914302056989 -0.360701013747 -0.102216741161 -0.289744775866
3.403099555000 -0.079276105097 -0.278658419250 0.908700292320 -0.373805676337 0.913534093245 -0.360343206336 -0.103767253074 -0.290033284719
3.404432666000 -0.078891989825 -0.279030821917 0.909379350326 -0.374140406602 0.911954291579 -0.361210000394 -0.102669688962 -0.289666449513
3.405765777000 -0.077931223166 -0.278430645053 0.908289922785 -0.374373332624 0.913562995852 -0.361945103994 -0.103358199625 -0.290564174683
3.407098888000 -0.078353098355 -0.277479248127 0.907447533706 -0.376502094534 0.912949917724 -0.363823228739 -0.101774399173 -0.288962762593
3.408431999000 -0.074796540918 -0.277190255281 0.908652214273 -0.373823336337 0.908943670364 -0.364806579074 -0.102537025218 -0.288955234670
3.409765111000 -0.078236899380 -0.280078730082 0.906007100242 -0.376072615857 0.909434360597 -0.361257896324 -0.101847406867 -0.290113917801
3.411098222000 -0.078420710425 -0.278705167371 0.905124377531 -0.375961086962 0.911540084589 -0.361015703116 -0.101844421514 -0.291236940643
3.412431333000 -0.076975584787 -0.277556273609 0.902688599228 -0.374380621669 0.911246530704 -0.366035907267 -0.099916172044 -0.290820411242
3.413764444000 -0.080319078480 -0.278803296537 0.907181977014 -0.375948955359 0.912566118300 -0.362696015712 -0.100125808160 -0.288856480288
3.415097555000 -0.076020654400 -0.278816431069 0.907359517769 -0.373936165855 0.912225186489 -0.364970627767 -0.102633262150 -0.290916313866
3.416430666000 -0.078550566697 -0.278411169248 0.908521418007 -0.378438105002 0.912756527857 -0.365478306770 -0.102118524230 -0.289591824016
3.417763777000 -0.076549157789 -0.279855760056 0.905783415876 -0.376537411862 0.907248038586 -0.361776608432 -0.103029350646 -0.290846629325
3.419096888000 -0.076780681660 -0.280519100120 0.904901426043 -0.379346802691 0.906233826589 -0.363996245964 -0.098508689816 -0.288229432143
3.420429999000 -0.076751562995 -0.278640255475 0.905245075048 -0.378996205390 0.910677080450 -0.363993537021 -0.101378420732 -0.289137576345
3.421763111000 -0.074237641789 -0.277884715470 0.906646793637 -0.377762979385 0.907334740893 -0.366404163447 -0.100025986199 -0.289468165675
3.423096222000 -0.076530999865 -0.278026448324 0.905914808572 -0.379351977091 0.911884939340 -0.365681846320 -0.100333254396 -0.288935393539
3.424429333000 -0.074925729328 -0.280149137175 0.903433728363 -0.375886438559 0.909280895547 -0.364711170254 -0.101043436551 -0.292538546499
3.425762444000 -0.074150991501 -0.279361831837 0.903124248802 -0.378817934636 0.908047938532 -0.367292221579 -0.098129954904 -0.290291680748
3.427095555000 -0.075041004820 -0.278964676544 0.903233343023 -0.380240203336 0.904825445529 -0.365098723476 -0.101537761059 -0.289896081592
3.428428666000 -0.076946080850 -0.280043732895 0.901361193088 -0.379978194312 0.905608642665 -0.365508967609 -0.098115505171 -0.291409881835
3.429761777000 -0.075513743924 -0.282347139805 0.904460428353 -0.379623389094 0.908441216550 -0.367884764846 -0.101905851463 -0.290517926906
3.431094888000 -0.076516919410 -0.283305943173 0.898612247312 -0.378359245295 0.904849687213 -0.364106529529 -0.095337196640 -0.291256114678
3.432427999000 -0.074284720445 -0.282469454240 0.899372641444 -0.378900979924 0.904391631788 -0.366949980726 -0.096277991983 -0.289721002527
3.433761111000 -0.076733408655 -0.283539293813 0.902444992904 -0.375448780009 0.903079122112 -0.359496853713 -0.098438690292 -0.293910846090
3.435094222000 -0.076268942789 -0.284167821778 0.900690826628 -0.374195284034 0.906379363797 -0.366624737981 -0.099588986621 -0.295013521973
3.436427333000 -0.073856134506 -0.283042930041 0.904526520294 -0.379245242235 0.902193639190 -0.364969869833 -0.101557214412 -0.290272513994
3.437760444000 -0.076305500889 -0.280895400423 0.895368875938 -0.378849839213 0.904912992870 -0.367079377143 -0.096919357518 -0.292992489763
3.439093555000 -0.073981565229 -0.282165535697 0.903783207608 -0.379676198681 0.906028215213 -0.367811171596 -0.102568998987 -0.293606110367
3.440426666000 -0.074139828455 -0.282754855204 0.899411181930 -0.380088690978 0.901815790816 -0.366880161412 -0.096176027440 -0.293338989588
3.441759777000 -0.073602864872 -0.283070499347 0.902693038602 -0.381013220287 0.902655014232 -0.365212921506 -0.100816438626 -0.293982753385
3.443092888000 -0.074197188213 -0.286375247678 0.898464192300 -0.383103204678 0.900998075614 -0.362286402234 -0.097467497684 -0.293668095608
3.444425999000 -0.073254503359 -0.286067941764 0.897043741648 -0.378522717742 0.900549664434 -0.365106286222 -0.100393337607 -0.293580629254
3.445759111000 -0.074963628724 -0.285024734452 0.898470495684 -0.381454282911 0.900267773794 -0.365890587337 -0.096386524937 -0.294045309313
3.447092222000 -0.072293123450 -0.286536783917 0.896290361673 -0.378275764898 0.899162805660 -0.365765154703 -0.098112706321 -0.296232221662
3.448425333000 -0.077118608314 -0.286543760774 0.902093266848 -0.380473978230 0.903715664065 -0.365785956652 -0.100182322077 -0.294306636369
3.449758444000 -0.072676057728 -0.285112545549 0.897325112979 -0.382166289647 0.900164094961 -0.370191193132 -0.100258328168 -0.294027075222
3.451091555000 -0.073111867015 -0.288620195343 0.900219238882 -0.377989290282 0.896970072665 -0.366955619195 -0.100598767700 -0.294160659087
3.452424666000 -0.072376836798 -0.288543995524 0.898412863855 -0.377761832351 0.900377359839 -0.363995972780 -0.099714643783 -0.296004322352
3.453757777000 -0.070975647322 -0.286320752877 0.897251642447 -0.379945764888 0.898593058645 -0.366971179388 -0.097688915174 -0.298776541091
3.455090888000 -0.069928434888 -0.288491346726 0.897044149121 -0.377633900807 0.899717479669 -0.368673023591 -0.100228025835 -0.295996695073
3.456423999000 -0.074128227067 -0.286300941069 0.898790074193 -0.374833154209 0.904322531527 -0.365847082641 -0.102036461394 -0.298180484843
3.457757111000 -0.074110856700 -0.287741888968 0.895459013916 -0.377913753407 0.898359783494 -0.368042030172 -0.095390173346 -0.298239404222
3.459090222000 -0.076210485600 -0.289076592066 0.895790139466 -0.380785787161 0.900496419535 -0.364343400075 -0.094053735774 -0.297671496637
3.460423333000 -0.071401234833 -0.291638720915 0.897915733274 -0.375251477043 0.901842421158 -0.366165907340 -0.099825265519 -0.298137897540
3.461756444000 -0.075052574484 -0.288451629266 0.897999248125 -0.378569007915 0.898757677441 -0.364635335860 -0.099685659025 -0.302067413529
3.463089555000 -0.072720976692 -0.288996614752 0.895589604948 -0.380535259250 0.899701172533 -0.367363727489 -0.101659748805 -0.298563531798
3.464422666000 -0.073620166972 -0.288548637366 0.899418695885 -0.380987296855 0.901939313962 -0.366400483151 -0.101754097112 -0.298211651723
3.465755777000 -0.072845756657 -0.292853741255 0.897398539284 -0.379826619033 0.897326827244 -0.368292468146 -0.104119039891 -0.299137499636
3.467088888000 -0.076017938420 -0.289421901141 0.896522624841 -0.383482372432 0.896422350265 -0.369359767409 -0.098805211310 -0.298719440559
3.468421999000 -0.073464284965 -0.289264937159 0.895161777682 -0.380935965664 0.897381399811 -0.371025597848 -0.097654008072 -0.299105731830
3.469755111000 -0.071692701397 -0.294653906115 0.897444758856 -0.378196954582 0.897263957242 -0.367366387642 -0.100384226166 -0.298866879890
3.471088222000 -0.072769139593 -0.295259429216 0.892950682387 -0.377383505990 0.895057927643 -0.367249991124 -0.099585009663 -0.301319598003
3.472421333000 -0.073017582326 -0.291403393243 0.893498561459 -0.381337452561 0.897641364398 -0.368908058832 -0.100253510373 -0.301504883567
3.473754444000 -0.072528840897 -0.294510460479 0.893300800970 -0.377058462041 0.896993313377 -0.367276442267 -0.100983469499 -0.304506728671
3.475087555000 -0.075849516884 -0.296339577581 0.896514810079 -0.379818675355 0.896422689375 -0.367574114563 -0.097828444107 -0.300097894757
3.476420666000 -0.074408563383 -0.292931049752 0.894976104005 -0.377066407228 0.897829533203 -0.367315022236 -0.101029529426 -0.304392566149
3.477753777000 -0.074315514436 -0.296463071272 0.894367518806 -0.377848777738 0.897243460513 -0.366768380313 -0.099081056381 -0.301366956920
3.479086888000 -0.074139714676 -0.289332277666 0.893350384734 -0.380712735661 0.896851929524 -0.371228867269 -0.100713613883 -0.302964417604
3.480419999000 -0.071626056671 -0.294315097632 0.896770762808 -0.383561320067 0.897938262946 -0.368523178468 -0.103285022426 -0.299558215887
3.481753111000 -0.076517200364 -0.298273281625 0.892702990958 -0.379101838986 0.895687895833 -0.366925525500 -0.097823572927 -0.302169575484
3.483086222000 -0.075713209513 -0.296905833084 0.893359237386 -0.382550379323 0.894694028435 -0.368179984414 -0.099154286010 -0.302887303413
3.484419333000 -0.071657916098 -0.296521453159 0.892312791883 -0.380857117417 0.892428500799 -0.369093746221 -0.097353269281 -0.300740601298
3.485752444000 -0.075497948450 -0.299065068028 0.896007828232 -0.378820287746 0.897194847586 -0.367818046939 -0.102216614699 -0.302828664653
3.487085555000 -0.075260480591 -0.299960270655 0.892841423320 -0.377299034442 0.897859557982 -0.363998378830 -0.102381376726 -0.307853391130
3.488418666000 -0.071827273662 -0.298629172791 0.895807813340 -0.376366750042 0.894911327199 -0.366485822584 -0.102194303815 -0.304502640327
3.489751777000 -0.072541218114 -0.300105119767 0.895993387337 -0.378023481431 0.895975430682 -0.366151453494 -0.104690906830 -0.304719133528
3.491084888000 -0.076150447509 -0.297626206646 0.896582210046 -0.380631964317 0.896685906630 -0.369316319887 -0.102668256999 -0.303063518108
3.492417999000 -0.074065273969 -0.301405202112 0.891400917401 -0.378214122980 0.892935367962 -0.365076892060 -0.100012941851 -0.305716075734
3.493751111000 -0.074053149628 -0.301300786660 0.892375075496 -0.375181311303 0.894200483781 -0.364832404641 -0.102164265168 -0.308081040424
3.495084222000 -0.075237353531 -0.300204933795 0.893975966377 -0.378328751436 0.895326856118 -0.368041909795 -0.103536891460 -0.304133850739
3.496417333000 -0.074987036816 -0.301475787914 0.894300807693 -0.375917728564 0.893231908306 -0.366736276344 -0.101816986202 -0.304903175625
3.497750444000 -0.074722975544 -0.301185396234 0.893792957817 -0.377661962974 0.895583706791 -0.367734750683 -0.103725087286 -0.309871133278
3.499083555000 -0.075821953120 -0.303669980290 0.892343869228 -0.382526368443 0.894703773568 -0.368669402187 -0.103563433637 -0.304739868996
3.500416666000 -0.074254318986 -0.301978933672 0.890893980244 -0.379415360778 0.893675700093 -0.370018771816 -0.101522439371 -0.307695379262
3.501749777000 -0.076627192560 -0.303481614298 0.890160978969 -0.380733618379 0.893044671178 -0.369922843965 -0.099927567424 -0.305819624140
3.503082888000 -0.074332944410 -0.305526769754 0.892391053988 -0.379822655064 0.893963143189 -0.366871458394 -0.102370799522 -0.306158479792
3.504415999000 -0.074617938823 -0.303056239998 0.888577293181 -0.379793084619 0.892439552348 -0.370295123925 -0.102922080885 -0.307001186469
3.505749111000 -0.074093955539 -0.305516067710 0.894361389586 -0.379195421447 0.894336119332 -0.369343069690 -0.105786234747 -0.306611661185
3.507082222000 -0.075054017991 -0.306372948763 0.893104429554 -0.378580964056 0.894859805166 -0.368686829480 -0.105220834946 -0.307850202550
3.508415333000 -0.072356290187 -0.305756356459 0.892400780565 -0.377823345388 0.891636904994 -0.368508217243 -0.105862909872 -0.308056611159
3.509748444000 -0.075098697988 -0.304669193610 0.890136766797 -0.378142867419 0.893296251529 -0.368771401602 -0.104403693351 -0.309099874212
3.511081555000 -0.071658485501 -0.309194891976 0.891114813905 -0.378308367675 0.894158840903 -0.366376900276 -0.102859669412 -0.306414671998
3.512414666000 -0.071722643450 -0.306146652945 0.887092268827 -0.376855740900 0.887862746710 -0.368810710076 -0.104892467253 -0.312307617474
3.513747777000 -0.074784874066 -0.304170608598 0.886636053790 -0.380564733685 0.887470374564 -0.371810237807 -0.103614012180 -0.310275710028
3.515080888000 -0.075601280087 -0.308945410787 0.889545111892 -0.379555317390 0.891907634582 -0.370321339540 -0.104121304032 -0.310532873239
3.516413999000 -0.070040256084 -0.307569885454 0.887774317109 -0.374372749184 0.887202029876 -0.368901177950 -0.105213185457 -0.312621760029
3.517747111000 -0.073636529740 -0.308679669562 0.885413036475 -0.379153547915 0.888799326703 -0.369803416917 -0.102405400097 -0.311119244772
3.519080222000 -0.076838991663 -0.307584714055 0.888551687300 -0.378538312221 0.890785829384 -0.369004691969 -0.105094337166 -0.312916540499
3.520413333000 -0.077620348312 -0.310804871669 0.890706442105 -0.379088106358 0.890773544458 -0.371071696932 -0.104817571937 -0.311411873730
3.521746444000 -0.073319769405 -0.307306326256 0.886658625636 -0.377514221202 0.886970823153 -0.369152009608 -0.102445910865 -0.311810643501
3.523079555000 -0.075903063842 -0.312075285899 0.891276864482 -0.377789745342 0.889777726285 -0.369677867469 -0.107030364011 -0.311297485423
3.524412666000 -0.075129298681 -0.311081996022 0.888221487397 -0.378557774656 0.888957421285 -0.371271743009 -0.106976367718 -0.313211946559
3.525745777000 -0.073996381636 -0.308953358475 0.888172807830 -0.374475446054 0.885690794557 -0.370023940598 -0.106434552248 -0.314877063550
3.527078888000 -0.077399488941 -0.312044365279 0.886529182954 -0.378611851095 0.889597086524 -0.366694884217 -0.108353394422 -0.314440660548
3.528411999000 -0.072770838381 -0.314876926721 0.887975639878 -0.375564124231 0.888887835050 -0.370580920637 -0.104830312186 -0.311530029061
3.529745111000 -0.073073719209 -0.310361479558 0.891104263173 -0.374600625275 0.888904482482 -0.371405830122 -0.105591076241 -0.310977744125
3.531078222000 -0.076079106468 -0.312512896870 0.889230740249 -0.377961749871 0.888946478948 -0.368066948999 -0.105598866329 -0.313242701896
3.532411333000 -0.074928702988 -0.315786136195 0.888452911201 -0.376349221108 0.887099937863 -0.368896558914 -0.106077988730 -0.313596755733
3.533744444000 -0.075162718094 -0.313812461405 0.887924770646 -0.377963811641 0.889433034729 -0.370341044878 -0.105306817258 -0.310884685085
3.535077555000 -0.075348891199 -0.314745302091 0.889349406943 -0.375451747905 0.886844658160 -0.372584562102 -0.107892046920 -0.313620682537
3.536410666000 -0.076401925203 -0.313582722231 0.887794569200 -0.376914255326 0.888753583414 -0.367639698662 -0.105280112628 -0.313249592967
3.537743777000 -0.077114017816 -0.314401112400 0.888254383357 -0.375913294665 0.889989964128 -0.369609850940 -0.107649775833 -0.313378106228
3.539076888000 -0.074542325402 -0.314687951069 0.888558773033 -0.378255426344 0.887342119439 -0.372373515341 -0.108227203680 -0.311522645157
3.540409999000 -0.076833077513 -0.315430785077 0.887756581267 -0.378490222942 0.887490240366 -0.369191775972 -0.109029546046 -0.312681077420
3.541743111000 -0.076524197777 -0.316095139886 0.888106817403 -0.380861256239 0.887846689012 -0.368730470286 -0.108159065238 -0.314086208802
3.543076222000 -0.077361794905 -0.316532667176 0.888594415986 -0.376982300079 0.886844148117 -0.369012304717 -0.107945454627 -0.313983993635
3.544409333000 -0.077256162289 -0.317008650012 0.888364816706 -0.375843780127 0.888402924072 -0.371073101767 -0.109480484015 -0.313213138814
3.545742444000 -0.077291548527 -0.316848845272 0.888293272317 -0.379600918996 0.888210709415 -0.370967799677 -0.106837610521 -0.315249477354
3.547075555000 -0.077613760866 -0.316516175446 0.889003432892 -0.376584094302 0.886490869845 -0.372590015088 -0.108565267491 -0.312439123943
3.548408666000 -0.078010206307 -0.316454077615 0.887619120350 -0.377554617706 0.886915929699 -0.370662090495 -0.107162790947 -0.313940448277
3.549741777000 -0.077491940746 -0.317079495421 0.886979927437 -0.378369295406 0.886238192863 -0.372711667682 -0.107629843916 -0.310463964004
3.551074888000 -0.078661279997 -0.317826248480 0.888417893935 -0.376982684052 0.888457190025 -0.370923115175 -0.111913329142 -0.315941954084
3.552407999000 -0.077309247003 -0.318897498877 0.884590595225 -0.378969990245 0.885678133417 -0.372234611856 -0.108271224631 -0.311270262261
3.553741111000 -0.077407925054 -0.320236712883 0.885477945644 -0.378280909457 0.882700216167 -0.370920214430 -0.108823095198 -0.313640252663
3.555074222000 -0.077357822078 -0.319812728238 0.887270857466 -0.376327896522 0.885948771180 -0.370236649409 -0.109192456476 -0.317131876760
3.556407333000 -0.079518043000 -0.319622351563 0.887994830712 -0.376729364529 0.884375833481 -0.367771158851 -0.109400044605 -0.315182975626
3.557740444000 -0.077786119026 -0.320670614444 0.889047140812 -0.378147084175 0.884370074017 -0.368374111702 -0.109902358635 -0.316167832120
3.559073555000 -0.076765582870 -0.320560936787 0.885931731728 -0.378110093887 0.885350238931 -0.373222462350 -0.110697920867 -0.314959147423
3.560406666000 -0.077180597619 -0.321401039143 0.885100228778 -0.379583924601 0.887179803979 -0.371294214546 -0.110133821743 -0.314238220133
3.561739777000 -0.079417410238 -0.321259170953 0.888453293792 -0.378883904144 0.884552485907 -0.370903264186 -0.110880289433 -0.316967628626
3.563072888000 -0.078880672268 -0.322484512867 0.887284476374 -0.379073040407 0.884464583858 -0.368065601731 -0.109858567403 -0.317469652841
3.564405999000 -0.079776848856 -0.318719788085 0.884326423911 -0.382027327618 0.882929896256 -0.370848556983 -0.111420356556 -0.314062765902
3.565739111000 -0.079881966937 -0.320245077248 0.885562752781 -0.377075883050 0.884813802720 -0.372691321941 -0.112791738553 -0.317448666504
3.567072222000 -0.077049488903 -0.321883945047 0.888579244709 -0.380055657825 0.882339790408 -0.374900252566 -0.111406584892 -0.314230820822
3.568405333000 -0.081582590916 -0.322972564318 0.890541773160 -0.376937105104 0.883455672569 -0.370322217417 -0.113351228433 -0.314843246916
3.569738444000 -0.078803890082 -0.321218447703 0.889322996184 -0.378538594451 0.884889441418 -0.375701188674 -0.114433133629 -0.316966933792
3.571071555000 -0.076861788524 -0.325711146617 0.881512642960 -0.376910445331 0.878927347767 -0.373760383443 -0.111023102665 -0.315172527831
3.572404666000 -0.081215794991 -0.322368452067 0.889481492381 -0.377646344706 0.887249510917 -0.375581797694 -0.113184154232 -0.313520044981
3.573737777000 -0.081299447604 -0.319439664215 0.892394139185 -0.382163871886 0.883657594597 -0.375343909144 -0.113546403396 -0.317340819055
3.575070888000 -0.080988162636 -0.321315338068 0.889329969411 -0.380021920306 0.885375596498 -0.375102849943 -0.110903171276 -0.316317157376
3.576403999000 -0.080199071231 -0.321844643401 0.890708690675 -0.378512317715 0.886925893655 -0.368739986088 -0.115484647713 -0.320508542830
3.577737111000 -0.076754138413 -0.321502112888 0.884124822251 -0.381119661120 0.881160420813 -0.376129818554 -0.117835545160 -0.314479997013
3.579070222000 -0.083247290460 -0.323139187475 0.887635649520 -0.380313266041 0.884670430573 -0.373044662512 -0.114564792515 -0.318440380901
3.580403333000 -0.077940456712 -0.326664473945 0.886461886125 -0.376986746830 0.881186283666 -0.370339492405 -0.112457255253 -0.317773047594
3.581736444000 -0.077728551730 -0.324643989754 0.887900338129 -0.378839740670 0.883691621080 -0.373839564220 -0.116869607517 -0.319302191571
3.583069555000 -0.082410090836 -0.321308976922 0.887963088408 -0.378812604237 0.884061290012 -0.373258625631 -0.118815716874 -0.319093676065
3.584402666000 -0.080555643389 -0.323893363778 0.885847502956 -0.381716853878 0.881619725007 -0.378095812868 -0.116756092151 -0.313866112687
3.585735777000 -0.077752853037 -0.324071741692 0.888663816151 -0.380418844299 0.884867231457 -0.375441830611 -0.118692341280 -0.316321942567
3.587068888000 -0.077607855772 -0.322784902929 0.883447913742 -0.381572342263 0.879861706245 -0.374675201223 -0.117595592246 -0.316011959640
3.588401999000 -0.078660657158 -0.327411892310 0.887344657888 -0.378255214727 0.883928852686 -0.375305854159 -0.118361750589 -0.317914103477
3.589735111000 -0.080075593624 -0.326417472183 0.888829403095 -0.382025365408 0.883842885186 -0.371032564071 -0.117205227477 -0.316420710453
3.591068222000 -0.080648469187 -0.323786181256 0.891692343467 -0.381149563610 0.882662638679 -0.372968151935 -0.120461037706 -0.317892461355
3.592401333000 -0.079104316810 -0.321105354738 0.888028474633 -0.380946390986 0.881574124716 -0.374854872105 -0.119199873471 -0.315574490972
3.593734444000 -0.079190205458 -0.323720674318 0.889378110766 -0.383356538084 0.882433191589 -0.376607341901 -0.121327973228 -0.314875991201
3.595067555000 -0.078810247778 -0.326489423233 0.888832311271 -0.381238002794 0.882396082714 -0.374958143797 -0.119521172730 -0.318705421227
3.596400666000 -0.082955178833 -0.321683910680 0.887186231305 -0.383782782388 0.883949921811 -0.376028348630 -0.122806633971 -0.319788046115
3.597733777000 -0.079083560828 -0.323579979704 0.886805624593 -0.384751012086 0.882669379674 -0.377430366660 -0.122339158352 -0.318005794961
3.599066888000 -0.079771777631 -0.326074374733 0.890438285123 -0.379555303047 0.881882583620 -0.372728267005 -0.123621781403 -0.320821782415
3.600399999000 -0.078520963818 -0.326181398892 0.892855074411 -0.382319584091 0.884101278503 -0.374570822068 -0.123887764800 -0.318086241536
3.601733111000 -0.081165075738 -0.321389569689 0.888750989885 -0.383726032549 0.880222024157 -0.376108079442 -0.121946821258 -0.321555000635
3.603066222000 -0.080777520104 -0.327038250989 0.891003818621 -0.382421063362 0.881159659806 -0.378021059178 -0.123488172799 -0.317562575275
3.604399333000 -0.082079372807 -0.321874207995 0.892912661495 -0.385587745594 0.881982180235 -0.378402234415 -0.125026906717 -0.319147185270
3.605732444000 -0.080794109813 -0.320975361057 0.889237417931 -0.385009635957 0.882474868481 -0.378242338125 -0.124463975951 -0.320365337807
3.607065555000 -0.078602304108 -0.324808678721 0.888358856336 -0.381983380202 0.880114375998 -0.377409358012 -0.124739500472 -0.318805897545
3.608398666000 -0.077521972531 -0.322878990595 0.890165507177 -0.383515208119 0.881360600925 -0.379969790235 -0.128789552901 -0.319189737160
3.609731777000 -0.082863333543 -0.323493359083 0.890134447892 -0.384419289928 0.880484347357 -0.381361812444 -0.125605473014 -0.317642591051
3.611064888000 -0.082646882496 -0.321103903770 0.889930860793 -0.384305297918 0.880512233174 -0.381699755391 -0.126209188405 -0.317724855213
3.612397999000 -0.080575004156 -0.326345427754 0.892797269119 -0.385039409208 0.882315945726 -0.380621781220 -0.126961254068 -0.318303877508
3.613731111000 -0.080397996710 -0.323907086327 0.889404182981 -0.384023943679 0.880456004393 -0.378947964990 -0.126710353150 -0.319843019241
3.615064222000 -0.085581809894 -0.323644513680 0.891085225278 -0.388041530564 0.880687569375 -0.381701112743 -0.124847581191 -0.319903048782
3.616397333000 -0.082290272924 -0.325038418394 0.889665809199 -0.386072611865 0.881628365483 -0.380099140554 -0.129285955129 -0.318213906578
3.617730444000 -0.079850948752 -0.322169956963 0.889765827995 -0.387253471485 0.878620492120 -0.380376836775 -0.126274562091 -0.319498782752
3.619063555000 -0.080083364867 -0.322099653683 0.890307510699 -0.385151790105 0.880777634082 -0.380452816390 -0.128617325694 -0.320977367483
3.620396666000 -0.082523335159 -0.320763329827 0.887070980507 -0.385749006489 0.881489476983 -0.379610506434 -0.129073556687 -0.324850619797
3.621729777000 -0.078084418375 -0.323384888532 0.892258350184 -0.383503209385 0.879945041777 -0.379049255302 -0.128935516534 -0.321072719279
3.623062888000 -0.083095406098 -0.320044426763 0.890799304316 -0.392679142806 0.879996505208 -0.383778569738 -0.127325048997 -0.322477417618
3.624395999000 -0.081574596765 -0.322654398665 0.892037130497 -0.390353348983 0.879851259141 -0.384881768903 -0.127959246575 -0.318627892369
3.625729111000 -0.079061375664 -0.318064798335 0.887414541408 -0.384698873169 0.879039185853 -0.382601431519 -0.130974931730 -0.322834918371
3.627062222000 -0.079616141454 -0.320456473015 0.889230862462 -0.386928481204 0.879341665051 -0.381910724041 -0.129863611770 -0.323583330432
3.628395333000 -0.080051278880 -0.323110955403 0.893075987603 -0.387002781749 0.881513115681 -0.382641689026 -0.129969425367 -0.321633297253
3.629728444000 -0.082532819443 -0.322056545341 0.889227580869 -0.391235804200 0.879491812239 -0.383616995396 -0.129338378630 -0.321466026093
3.631061555000 -0.082957459869 -0.321742656876 0.892955883646 -0.391790378887 0.881393658522 -0.384022855503 -0.129381021793 -0.321039433411
3.632394666000 -0.080382693635 -0.320102146767 0.891258450564 -0.390510985064 0.878225821389 -0.384387438974 -0.129327507163 -0.320834444038
3.633727777000 -0.081101687675 -0.320342009839 0.890846686319 -0.387588070456 0.877924938360 -0.383298859450 -0.131237305536 -0.322811847508
3.635060888000 -0.080742720226 -0.319105081046 0.891035977647 -0.389212057656 0.880499273354 -0.386082910435 -0.130704127262 -0.322504457679
3.636393999000 -0.079532337734 -0.320438129622 0.893222394192 -0.389441757343 0.878755940817 -0.384557038235 -0.131516982723 -0.322174588304
3.637727111000 -0.080040797670 -0.320018914638 0.890797361841 -0.391577207645 0.878799323568 -0.385352528032 -0.131177202936 -0.322275040715
3.639060222000 -0.080948581706 -0.317281877973 0.889165706120 -0.393535055421 0.877873440938 -0.387243690512 -0.131955217009 -0.322784215020
3.640393333000 -0.082546428096 -0.318623417321 0.889462249861 -0.392920919851 0.877871876333 -0.386428380993 -0.130468998601 -0.323139929876
3.641726444000 -0.080978427369 -0.320745333900 0.890992369745 -0.393579031189 0.877890120377 -0.385245439122 -0.130444361077 -0.322156930584
3.643059555000 -0.079977739079 -0.318408155133 0.890738173262 -0.391248060479 0.878263741609 -0.386628125082 -0.132219680163 -0.324008421668
3.644392666000 -0.080464033356 -0.318520359952 0.890233095532 -0.392707377885 0.876779247377 -0.387142950581 -0.132143390916 -0.323633307881
3.645725777000 -0.078996482583 -0.315482237951 0.888871248816 -0.391954976023 0.875631149953 -0.388096204763 -0.133984753715 -0.323859083102
3.647058888000 -0.081457480690 -0.318195050666 0.891097150937 -0.396547251661 0.875489479826 -0.389176607974 -0.132749254110 -0.322982991236
3.648391999000 -0.079079962451 -0.318693028725 0.890900708433 -0.394233276128 0.877236065432 -0.387135040340 -0.132491413741 -0.324219213442
3.649725111000 -0.080681755533 -0.317985375382 0.890286926661 -0.396451475186 0.876892580175 -0.388103408522 -0.132487001923 -0.322599603898
3.651058222000 -0.079694163242 -0.315273423233 0.888125473629 -0.396352095980 0.876224078142 -0.389415055549 -0.133874463673 -0.323185773366
3.652391333000 -0.078704699586 -0.315379942517 0.889092942383 -0.396065680020 0.876917249734 -0.388510884777 -0.134427017808 -0.321767108230
3.653724444000 -0.077935657384 -0.316416152937 0.889138638544 -0.396740406815 0.875510984028 -0.390793328773 -0.132895942259 -0.323075046598
3.655057555000 -0.079611210911 -0.315189302328 0.888176460624 -0.398936810364 0.875517417661 -0.390789373790 -0.133485875187 -0.325035673534
3.656390666000 -0.080561317158 -0.316043456807 0.889171532609 -0.399833872299 0.876675496309 -0.390762242778 -0.133969947859 -0.323095533994
3.657723777000 -0.080442359472 -0.317316338116 0.888070308583 -0.399458894036 0.873390205824 -0.390436019226 -0.131866955479 -0.321868330237
3.659056888000 -0.078685892093 -0.316349356470 0.885789955276 -0.398141971191 0.873290694532 -0.389223265453 -0.134067635993 -0.321479387388
3.660389999000 -0.079014004919 -0.317086587607 0.888628247201 -0.401176424493 0.872346368168 -0.393831238944 -0.135733897175 -0.322691685536
3.661723111000 -0.077545839314 -0.313565842940 0.886165216511 -0.401565917730 0.876472842373 -0.396053813679 -0.135418838462 -0.324139385911
3.663056222000 -0.080620725680 -0.315512713868 0.888326315704 -0.402002571826 0.874649255807 -0.391217327441 -0.132411611645 -0.323160054648
3.664389333000 -0.077612222551 -0.317271034658 0.888881472270 -0.400427446539 0.869890068444 -0.392522278817 -0.133048427044 -0.318368933523
3.665722444000 -0.077278668926 -0.313793521225 0.883369484589 -0.401618964941 0.872367675119 -0.394510982955 -0.135799129611 -0.321284284097
3.667055555000 -0.081187460098 -0.313207382038 0.887810076202 -0.403169317680 0.878812302552 -0.392218266827 -0.137144325931 -0.324038387968
3.668388666000 -0.078231492224 -0.313741679709 0.887544870922 -0.403122792567 0.874739906670 -0.393932035482 -0.137396293801 -0.323010994859
3.669721777000 -0.078907963252 -0.313446445892 0.886432461509 -0.404555672843 0.874792106469 -0.393506548332 -0.135481463442 -0.324192527459
3.671054888000 -0.079450622580 -0.312400510425 0.887187152473 -0.403682976617 0.876931176676 -0.393646418406 -0.135246580893 -0.323672800523
3.672387999000 -0.078400824974 -0.313394853071 0.885052613379 -0.403154066122 0.874931430055 -0.393226767838 -0.134397407814 -0.323153388468
3.673721111000 -0.078588219429 -0.316875358048 0.884412955606 -0.402662784114 0.869389594380 -0.391993034217 -0.134213273024 -0.323886702070
3.675054222000 -0.077807386876 -0.313399622946 0.886126708290 -0.405609414647 0.872807831817 -0.395834208910 -0.137977439065 -0.324879719925
3.676387333000 -0.077990043314 -0.311702432793 0.887740262406 -0.405145305531 0.875896203992 -0.397643857198 -0.138685722734 -0.325804663239
3.677720444000 -0.079406753735 -0.313369057266 0.884998497010 -0.405232942442 0.873310823344 -0.392665304838 -0.134194178040 -0.327110149197
3.679053555000 -0.078385447166 -0.314225492383 0.884242695395 -0.407208398089 0.872133598440 -0.395866243901 -0.137100763707 -0.325219592240
3.680386666000 -0.077870528373 -0.313206143968 0.884922608020 -0.405174327977 0.873162572507 -0.396392547280 -0.136324126929 -0.326016073007
3.681719777000 -0.079274632083 -0.314735888888 0.881447356180 -0.408951688627 0.871068400474 -0.392203646326 -0.135056168748 -0.322520927665
3.683052888000 -0.078112549948 -0.313680906337 0.882826012774 -0.408529381615 0.869975062777 -0.394099869031 -0.134734273566 -0.320737136486
3.684385999000 -0.079681650359 -0.312496450972 0.883536783511 -0.410010763314 0.872853269637 -0.396156905255 -0.136224537684 -0.322314839099
3.685719111000 -0.077114145505 -0.313523846125 0.882412250284 -0.410697321769 0.870135290678 -0.398476631846 -0.137327795904 -0.323352378966
3.687052222000 -0.077727614971 -0.315051863459 0.880525078105 -0.408872415524 0.867444028196 -0.396712876191 -0.133774696592 -0.322281454408
3.688385333000 -0.080487945392 -0.312986862660 0.883293995589 -0.407933920348 0.872633142115 -0.394076746679 -0.135373237803 -0.325461866016
3.689718444000 -0.078976423155 -0.313951583817 0.883161221991 -0.410556624305 0.868782732707 -0.396303384386 -0.137991636482 -0.323502699569
3.691051555000 -0.077385488791 -0.312824842053 0.881428047908 -0.411256177441 0.871007651583 -0.398535381159 -0.137045105437 -0.325329406935
3.692384666000 -0.080554581654 -0.314884793467 0.878480465087 -0.407643514685 0.870755388592 -0.390841252784 -0.129944970128 -0.322532696855
3.693717777000 -0.075672420937 -0.315597062985 0.879262519577 -0.412148194797 0.865343576432 -0.399103966459 -0.138174468417 -0.320660905651
3.695050888000 -0.077404616405 -0.314311618261 0.879074889986 -0.411857413822 0.868747276560 -0.399336187936 -0.136892676955 -0.322439731292
3.696383999000 -0.078771625034 -0.313880190279 0.882873210512 -0.411968873215 0.869666985805 -0.395226226042 -0.138442673106 -0.326060370169
3.697717111000 -0.077665527503 -0.314922955768 0.881872799412 -0.413952654843 0.867644440024 -0.398400637475 -0.143414463715 -0.324321870706
3.699050222000 -0.079195530261 -0.315444869480 0.880222099544 -0.411875291592 0.869397472245 -0.395347266350 -0.137776733411 -0.326858999370
3.700383333000 -0.078042517944 -0.312619347160 0.877592933158 -0.410265625935 0.871206910608 -0.395341476380 -0.137131232439 -0.324546832650
3.701716444000 -0.076255337640 -0.315603820249 0.879623199514 -0.414499469923 0.868048267372 -0.401614682463 -0.139869315479 -0.320454131343
3.703049555000 -0.077307101772 -0.316203327871 0.882141581777 -0.413022769101 0.870496730228 -0.396975269654 -0.140695153352 -0.326408949058
3.704382666000 -0.074723423843 -0.315044462013 0.876950063369 -0.412112014034 0.867626457027 -0.400339417743 -0.138769200587 -0.326369186127
3.705715777000 -0.079636985580 -0.319021141976 0.877362785237 -0.413121378462 0.865606603902 -0.396630849913 -0.137555648422 -0.326344167983
3.707048888000 -0.081890392953 -0.314824284610 0.870103357671 -0.413277736287 0.862849665739 -0.397891785602 -0.134698803892 -0.322103329913
3.708381999000 -0.078446892325 -0.316335075483 0.871697896024 -0.413223162517 0.864405154373 -0.397740911543 -0.139238935375 -0.327916397355
3.709715111000 -0.077823231461 -0.318542659833 0.873990707337 -0.412365970549 0.864239338747 -0.397257132984 -0.136573951038 -0.324944859266
3.711048222000 -0.076250113218 -0.314611316797 0.874346730991 -0.414617758568 0.865191654642 -0.401336239918 -0.139355560610 -0.325864634738
3.712381333000 -0.076086369725 -0.316134120010 0.874566641847 -0.410765451844 0.863220598857 -0.398859057383 -0.142943607565 -0.327757333554
3.713714444000 -0.081004452575 -0.319093426976 0.874601831705 -0.412636421160 0.863335554997 -0.392759133576 -0.140562974614 -0.327938169135
3.715047555000 -0.076231192820 -0.315628190675 0.870078257087 -0.419030992558 0.864186720702 -0.407607313465 -0.143050765260 -0.321625276432
3.716380666000 -0.082215587302 -0.316662092758 0.870983671799 -0.416305245226 0.863197839247 -0.397901855183 -0.133610769591 -0.327129503075
3.717713777000 -0.080490402714 -0.320909472209 0.873559320285 -0.416567468922 0.864818753477 -0.395546166496 -0.142184617445 -0.325218255439
3.719046888000 -0.080925884380 -0.316428273994 0.870060830626 -0.415810606968 0.861645581511 -0.398292876414 -0.136956220438 -0.326998016266
3.720379999000 -0.078336880219 -0.317352174861 0.871046234887 -0.415263029720 0.863145906300 -0.397764673722 -0.141190465214 -0.328108296294
3.721713111000 -0.080011163004 -0.317013941530 0.866582164278 -0.416432611121 0.862287662672 -0.399180815781 -0.138861136088 -0.325433763703
3.723046222000 -0.076318469935 -0.320191036814 0.868740108149 -0.415337159326 0.861491577540 -0.400990080457 -0.142003979477 -0.325683681558
3.724379333000 -0.080737764667 -0.318411403623 0.868437052171 -0.417188089050 0.867383081722 -0.400849672726 -0.141357626495 -0.330666065141
3.725712444000 -0.078018906504 -0.320079262253 0.869044337306 -0.415504052519 0.858003538844 -0.399802607038 -0.141418174434 -0.327663045051
3.727045555000 -0.081198898624 -0.318957956862 0.867393461043 -0.418615343451 0.861841511625 -0.399050212354 -0.144877647283 -0.327696774876
3.728378666000 -0.074719252633 -0.318545072694 0.867046105552 -0.418284559606 0.858148862085 -0.403817801604 -0.145409673246 -0.324078806090
3.729711777000 -0.082639918840 -0.322982714244 0.870160178511 -0.422010807957 0.860921169101 -0.401923980626 -0.139490225465 -0.323596605139
3.731044888000 -0.079968631498 -0.318875844770 0.865529960229 -0.418953010669 0.858584246394 -0.404443528182 -0.143346113609 -0.327974741536
3.732377999000 -0.077988808561 -0.321751182193 0.866582862344 -0.421381544441 0.861642696294 -0.403379673826 -0.145099123678 -0.328545621124
3.733711111000 -0.080253125725 -0.320975930141 0.868668297743 -0.418244036542 0.863113949887 -0.402245871703 -0.147128324604 -0.329081746744
3.735044222000 -0.077891231788 -0.321262777922 0.865326066384 -0.417216221965 0.860882121423 -0.400014716946 -0.145245265304 -0.329789900002
3.736377333000 -0.081015302916 -0.323225942994 0.869137154785 -0.417105567602 0.859447767091 -0.399798032754 -0.144367994811 -0.331931200727
3.737710444000 -0.079788748438 -0.320544340275 0.867293302876 -0.417301126245 0.860420473633 -0.401341109929 -0.145004413434 -0.332059749887
3.739043555000 -0.079698156288 -0.322424891132 0.865827845029 -0.417770636754 0.856649321927 -0.400540674163 -0.144390735691 -0.330870527223
3.740376666000 -0.080998255202 -0.322720819685 0.866456502294 -0.416123115306 0.861043867145 -0.401887827938 -0.147219923129 -0.330974408442
3.741709777000 -0.078431970472 -0.322760219464 0.868624943728 -0.415143508971 0.858489238216 -0.399431783615 -0.144683319653 -0.331552358189
3.743042888000 -0.081379834822 -0.324843589706 0.866998771675 -0.422421682422 0.858931292631 -0.402194856654 -0.142750774912 -0.330618358521
3.744375999000 -0.082049530629 -0.326586066139 0.869839105135 -0.420633403059 0.860478782778 -0.401045119092 -0.144255284075 -0.328678319147
3.745709111000 -0.082063128368 -0.324048363478 0.864548772155 -0.417395045281 0.857770570557 -0.401803309928 -0.145428689965 -0.332641120583
3.747042222000 -0.080468925313 -0.329698746659 0.869654677236 -0.420698896771 0.859094815070 -0.399092481264 -0.143631370807 -0.329682512781
3.748375333000 -0.080742952380 -0.328265582854 0.869506767882 -0.416174941499 0.858051751857 -0.399769374505 -0.146553796036 -0.331291089824
3.749708444000 -0.076951953218 -0.326047265164 0.867352854848 -0.412591714868 0.858002035824 -0.397686432824 -0.149242575731 -0.333648917940
3.751041555000 -0.080867160060 -0.325360823773 0.867250036182 -0.417285386684 0.857011887170 -0.398280842423 -0.145900142904 -0.333738246776
3.752374666000 -0.081121799516 -0.321758526303 0.861060692277 -0.415192209158 0.855089213374 -0.400619063839 -0.148542334254 -0.337078326041
3.753707777000 -0.077790455076 -0.328962570460 0.865621451062 -0.415901257007 0.857121524698 -0.399182420132 -0.149169249360 -0.333530194716
3.755040888000 -0.080788492819 -0.325415441987 0.862671522094 -0.409266920454 0.856663719342 -0.399042870374 -0.151211157742 -0.336959931709
3.756373999000 -0.082194883177 -0.328575495274 0.867117088051 -0.417773115053 0.857245430908 -0.399560590486 -0.147210242386 -0.335297496754
3.757707111000 -0.083377493626 -0.327359097615 0.862584909421 -0.420106978853 0.855763960904 -0.399563044028 -0.144400993288 -0.333962210350
3.759040222000 -0.080531063986 -0.327118479581 0.861251353586 -0.418203374560 0.854273048363 -0.402167043261 -0.146355274082 -0.337348393585
3.760373333000 -0.083676508746 -0.330377808197 0.864220573271 -0.418934304682 0.857107678182 -0.400494398711 -0.145774826733 -0.334436210365
3.761706444000 -0.084070853648 -0.331814578609 0.867347122856 -0.422451634387 0.859703056864 -0.402089138888 -0.146259199868 -0.333528567575
3.763039555000 -0.080694899440 -0.332345691182 0.864411674753 -0.421683758475 0.855627763362 -0.400771346703 -0.147389441071 -0.333341578091
3.764372666000 -0.085094982525 -0.334319113134 0.865820484508 -0.419918407116 0.858253388235 -0.399524410240 -0.146451230133 -0.334604004037
3.765705777000 -0.084913933922 -0.336054231156 0.865812739483 -0.418565633190 0.857046073051 -0.401087061289 -0.145559006315 -0.334328791786
3.767038888000 -0.084796166347 -0.332055610459 0.868201621274 -0.423412343542 0.854919884579 -0.401295112445 -0.145318260895 -0.332449010366
3.768371999000 -0.085222551318 -0.328762370830 0.862696731529 -0.418228216943 0.851727001446 -0.402957325558 -0.147145092585 -0.336758891427
3.769705111000 -0.084626637086 -0.331868740218 0.866223959147 -0.417146578842 0.854737743329 -0.401106431881 -0.149638700429 -0.335621383856
3.771038222000 -0.084996936287 -0.332844790080 0.860267226450 -0.420808209803 0.851652899972 -0.401002912147 -0.147364130686 -0.335675944459
3.772371333000 -0.086772996721 -0.329911255930 0.862023015068 -0.414963911204 0.855037282657 -0.402767032422 -0.148990056673 -0.338087549728
3.773704444000 -0.083788659893 -0.330705413273 0.858124499217 -0.418798327030 0.850660873143 -0.402921705684 -0.148107984325 -0.336113239980
3.775037555000 -0.083958262229 -0.330841369242 0.863850627282 -0.416318248326 0.852974027082 -0.401671273590 -0.148673965146 -0.336309234682
3.776370666000 -0.083666737647 -0.335379184106 0.862107199706 -0.414791489994 0.852834151240 -0.402156640385 -0.150097845791 -0.337611632755
3.777703777000 -0.086281953737 -0.332224028687 0.861957710465 -0.416858176023 0.853233994884 -0.403395321371 -0.147704995333 -0.340569601916
3.779036888000 -0.086333988938 -0.331768731721 0.858272907937 -0.418247022747 0.846262537332 -0.403349775254 -0.148970759734 -0.337639825051
3.780369999000 -0.088892891043 -0.334128015881 0.862322031633 -0.416383514523 0.851676439320 -0.401920760429 -0.148137834970 -0.337408644732
3.781703111000 -0.086905191881 -0.333077275552 0.858471540765 -0.419612102897 0.847872407632 -0.404448659126 -0.145422806330 -0.337371483968
3.783036222000 -0.084453777091 -0.333819592286 0.859290000016 -0.416443414580 0.851227437831 -0.400723626575 -0.148717499753 -0.341336036782
3.784369333000 -0.085856505838 -0.337600315755 0.860511678915 -0.415579081792 0.853084709243 -0.399878158193 -0.148049407605 -0.337503044690
3.785702444000 -0.090440808961 -0.337241597662 0.860310984887 -0.419523327932 0.851172421674 -0.401343531815 -0.146367328712 -0.335626809180
3.787035555000 -0.089590210425 -0.336260423226 0.862612511433 -0.418242937414 0.849058964639 -0.402906507540 -0.148894343247 -0.336844759405
3.788368666000 -0.090779748482 -0.334798485533 0.859804972288 -0.417515196064 0.849869551081 -0.399539274453 -0.145039938703 -0.340282566093
3.789701777000 -0.091374868818 -0.336639721581 0.860504655469 -0.415095745648 0.851422596762 -0.401459666469 -0.146858897701 -0.339145270273
3.791034888000 -0.090549637142 -0.338257591069 0.860442319462 -0.417469338224 0.850901574152 -0.402191725833 -0.147968851974 -0.338880110931
3.792367999000 -0.088760881689 -0.335328448644 0.860923201719 -0.417014746175 0.850061100684 -0.405253380128 -0.147893849228 -0.339613559509
3.793701111000 -0.091349376516 -0.339328108806 0.862513695647 -0.420457005355 0.850311855167 -0.406168701379 -0.145358697193 -0.340093653493
3.795034222000 -0.089228808384 -0.338388902683 0.860228965226 -0.416909470332 0.848778907025 -0.404685927855 -0.153101769439 -0.341691264777
3.796367333000 -0.092465799756 -0.338658924436 0.860452325051 -0.415108624333 0.845753553800 -0.403670486025 -0.148219173768 -0.335977533878
3.797700444000 -0.092177191637 -0.337144161604 0.860785116932 -0.413048191359 0.846239120369 -0.398325494976 -0.145465890374 -0.339978881594
3.799033555000 -0.092341004054 -0.342424242458 0.859893550484 -0.411498302097 0.844568633556 -0.398867684170 -0.149133459873 -0.340020917256
3.800366666000 -0.092379596385 -0.336355819142 0.859186450394 -0.415162571153 0.850334473950 -0.404510815978 -0.151122694079 -0.340296018651
3.801699777000 -0.093052983243 -0.336833865329 0.858387702357 -0.421262661289 0.846855571122 -0.412435641719 -0.147356687439 -0.338906107430
3.803032888000 -0.090106555077 -0.341227974347 0.857723615002 -0.417307554698 0.846315230848 -0.406696288746 -0.148515684746 -0.339551738910
3.804365999000 -0.090779295317 -0.340024924226 0.856817893431 -0.418022497759 0.849706109453 -0.409351026209 -0.151232174663 -0.338664183456
3.805699111000 -0.094530662648 -0.341742921165 0.859404438515 -0.415335505901 0.849307314798 -0.402651322300 -0.145678015911 -0.343222823109
3.807032222000 -0.090189787998 -0.341404885566 0.856718566166 -0.415180079023 0.845669195524 -0.404642502303 -0.149527176262 -0.339827683798
3.808365333000 -0.095485198982 -0.343431146933 0.861688058414 -0.413322187969 0.849409788331 -0.399086582154 -0.143106945725 -0.342610472161
3.809698444000 -0.093857626748 -0.343172754452 0.860713888986 -0.413760048117 0.848477090242 -0.402223246287 -0.148846697981 -0.340348233192
3.811031555000 -0.095607469283 -0.342731831299 0.855747152238 -0.417686660430 0.844110637911 -0.406135357700 -0.151773079431 -0.338774799977
3.812364666000 -0.093466350851 -0.337934973476 0.861578119535 -0.415900595992 0.851993744040 -0.406383467309 -0.152964030506 -0.346498204222
3.813697777000 -0.096765351896 -0.342617572728 0.861026634313 -0.417033572059 0.850363850785 -0.401790399564 -0.149364070881 -0.344799626297
3.815030888000 -0.095088944707 -0.347642642527 0.860403507526 -0.413704215049 0.843280131498 -0.403485771066 -0.151450930319 -0.340938043099
3.816363999000 -0.093241185893 -0.345795735017 0.860010533488 -0.416108879461 0.847332814870 -0.409828513279 -0.152379610907 -0.339609869250
3.817697111000 -0.099244981623 -0.347951044400 0.858062974085 -0.409998199391 0.844332302014 -0.397700814310 -0.144124280717 -0.338878861018
3.819030222000 -0.097820193165 -0.346139515806 0.859202259822 -0.414034613098 0.847111392116 -0.406918640211 -0.150886363143 -0.343710545838
3.820363333000 -0.099741712625 -0.347089876706 0.859050556025 -0.415892196121 0.844223356467 -0.404278050299 -0.147150781065 -0.341524988889
3.821696444000 -0.096527669808 -0.346633229299 0.861992565280 -0.416234382579 0.846712398969 -0.406961071103 -0.151905979969 -0.344264744527
3.823029555000 -0.097932589150 -0.346810017226 0.860023079923 -0.412589629623 0.847799248344 -0.402055238003 -0.148657190067 -0.343923761292
3.824362666000 -0.097378219415 -0.350081066635 0.858018377414 -0.416528367804 0.843986095391 -0.405029589575 -0.150516097716 -0.342491069203
3.825695777000 -0.101621443443 -0.345758774827 0.862097043385 -0.415330235390 0.849844866109 -0.404547623318 -0.149430329472 -0.343430395425
3.827028888000 -0.097426716915 -0.348040366671 0.859013868835 -0.416101223013 0.843850286431 -0.408086268179 -0.153464316897 -0.343828513204
3.828361999000 -0.102180781491 -0.349227452848 0.861257646589 -0.414977364806 0.846447969753 -0.400534195243 -0.149437459035 -0.347392139989
3.829695111000 -0.099331016493 -0.349385820078 0.857655152168 -0.415268829881 0.843886351527 -0.403772001183 -0.150246166771 -0.342887682877
3.831028222000 -0.098178568119 -0.349003352082 0.862540751636 -0.416481367449 0.850201228770 -0.408527496893 -0.154618756275 -0.348291599224
3.832361333000 -0.102195688400 -0.347385774613 0.862383653766 -0.414035296213 0.853243563708 -0.403403840124 -0.150397236797 -0.348778617836
3.833694444000 -0.103219536420 -0.351541996357 0.861397391511 -0.412759662291 0.849767302112 -0.400594869599 -0.148196575347 -0.346915678694
3.835027555000 -0.104919972989 -0.353552292038 0.860742742741 -0.416080372267 0.844355346949 -0.404076237352 -0.149585711888 -0.340655692363
3.836360666000 -0.101219784964 -0.350971616105 0.859032283737 -0.417006373253 0.847530233850 -0.406550641785 -0.154729836826 -0.346762406757
3.837693777000 -0.101809964326 -0.351646353729 0.857672961083 -0.415511337686 0.844036103313 -0.407522674606 -0.151718445667 -0.344958397820
3.839026888000 -0.101836102056 -0.354284416347 0.858876347973 -0.413661101632 0.844320389482 -0.404095693127 -0.150978980220 -0.344934507451
3.840359999000 -0.102979421075 -0.354058771411 0.862969734718 -0.414788031076 0.848618238628 -0.405442428829 -0.150010675750 -0.348122285407
3.841693111000 -0.102877045458 -0.352202966240 0.858834312965 -0.414639880543 0.845128054101 -0.405712448874 -0.152677784613 -0.346674435873
3.843026222000 -0.100720493347 -0.353612031316 0.860339423185 -0.416102783296 0.845323693031 -0.409878162509 -0.154496336622 -0.348614943623
3.844359333000 -0.104584516346 -0.354229211285 0.858680159984 -0.416900983752 0.844346550552 -0.409644886901 -0.154024377694 -0.345099206851
3.845692444000 -0.102628655450 -0.356202301461 0.857126317600 -0.415213883337 0.843840856690 -0.409665656300 -0.154055574531 -0.346361380017
3.847025555000 -0.103225474999 -0.355459976219 0.858288213533 -0.415622735272 0.845326191099 -0.407730069711 -0.155341111858 -0.345513386039
3.848358666000 -0.105343609490 -0.356796491200 0.859144573099 -0.411928534193 0.844596632574 -0.404033228410 -0.150755278252 -0.347039697433
3.849691777000 -0.106173582676 -0.356813837064 0.855221055629 -0.413929424896 0.841907343242 -0.402074202935 -0.152044449794 -0.345706324859
3.851024888000 -0.103464196095 -0.353781359618 0.855165218081 -0.416316267377 0.843230652745 -0.406445998860 -0.151523649068 -0.348713170419
3.852357999000 -0.106050137731 -0.358593521832 0.860833630886 -0.416146631921 0.847292091067 -0.404432067090 -0.151263908143 -0.345804605926
3.853691111000 -0.105971212969 -0.355909590761 0.859015815960 -0.417464894959 0.844788546554 -0.407039467450 -0.152858800418 -0.346467685071
3.855024222000 -0.106650475024 -0.360455508679 0.860754246607 -0.413478856305 0.842347098555 -0.406651416833 -0.152359854455 -0.344828514925
3.856357333000 -0.106459404969 -0.358324021198 0.857343765808 -0.415953228437 0.844537757989 -0.405574076521 -0.152495575612 -0.347476459581
3.857690444000 -0.101996757872 -0.355433734853 0.856705307712 -0.414444965687 0.839985966697 -0.405972027842 -0.153915645033 -0.346049694908
3.859023555000 -0.108422378328 -0.357893971837 0.861305281143 -0.417692595772 0.842701182969 -0.407329216763 -0.151127003703 -0.345853100338
3.860356666000 -0.106002744404 -0.357539835638 0.858591908609 -0.412291992032 0.839443916823 -0.405863412602 -0.152641714966 -0.345906422519
3.861689777000 -0.105850612489 -0.358552432564 0.857310439365 -0.414164684700 0.842046475653 -0.409577056281 -0.154553445568 -0.347248910955
3.863022888000 -0.100544053613 -0.357305710429 0.858861354994 -0.410817471757 0.841610075505 -0.406664505772 -0.157558319740 -0.345387480007
3.864355999000 -0.108312257185 -0.356206985647 0.854831990210 -0.412075393019 0.843597406140 -0.406478687039 -0.155180631184 -0.348889123953
3.865689111000 -0.107300956664 -0.361027162976 0.858192309963 -0.415231849702 0.842241284202 -0.405987599010 -0.155635841935 -0.346818446953
3.867022222000 -0.105734554832 -0.358503843743 0.855034726380 -0.414458763262 0.840982259981 -0.404595774260 -0.155314269981 -0.348652417940
3.868355333000 -0.110979407455 -0.360728437735 0.860373109282 -0.418361694239 0.838882242069 -0.405744624073 -0.153465254662 -0.345667599724
3.869688444000 -0.109166943571 -0.360101868475 0.859354322469 -0.418320659520 0.838365330501 -0.407288904167 -0.154481406288 -0.345345885465
3.871021555000 -0.107979534210 -0.360440983246 0.858646892555 -0.415708080612 0.838888232554 -0.408054908599 -0.156321225689 -0.346745100613
3.872354666000 -0.110798512459 -0.360206755055 0.858176787512 -0.418484071402 0.839674382731 -0.407575832084 -0.155483269070 -0.345509001735
3.873687777000 -0.108848582084 -0.363441800603 0.859382922715 -0.416194894806 0.840219200308 -0.407522796081 -0.157179219589 -0.345639087441
3.875020888000 -0.113930907358 -0.358846214330 0.860494342515 -0.417673087712 0.839569281105 -0.409506093923 -0.155254702020 -0.345566026929
3.876353999000 -0.110533257271 -0.357585958185 0.857996879453 -0.415025791998 0.839125595998 -0.408028066226 -0.158974118721 -0.348624158079
3.877687111000 -0.111829418322 -0.361516397264 0.861410467006 -0.418954983658 0.839858255754 -0.410281741827 -0.157170868005 -0.345691663948
3.879020222000 -0.109250912417 -0.362001729245 0.859054764017 -0.418509162579 0.839397574379 -0.408865972611 -0.158113435622 -0.347344603583
3.880353333000 -0.112831055072 -0.359870728853 0.860230468062 -0.418948763453 0.839434799411 -0.410532680545 -0.158387426163 -0.346388486865
3.881686444000 -0.112535468524 -0.359615052191 0.860502799310 -0.419316481622 0.841584721545 -0.410939704296 -0.158820228137 -0.346472396891
3.883019555000 -0.109534203381 -0.357656835342 0.859456392103 -0.416762451503 0.839816328424 -0.409536390978 -0.159505606515 -0.346855184008
3.884352666000 -0.110199861871 -0.359062048110 0.860902250617 -0.417776482308 0.839522723861 -0.407618526924 -0.160724143916 -0.346605023083
3.885685777000 -0.111136302736 -0.357759299209 0.858581124586 -0.417623225863 0.839698650766 -0.410798812000 -0.157540293211 -0.348672020879
3.887018888000 -0.107078436081 -0.356873345383 0.856039637692 -0.418412546094 0.837253606130 -0.409679142789 -0.160598804128 -0.349268833745
3.888351999000 -0.106372222123 -0.361706902096 0.863996317596 -0.417662051825 0.841328408307 -0.412505020754 -0.161941514036 -0.347522281667
3.889685111000 -0.110693377101 -0.356323208223 0.856630854591 -0.421322327476 0.836491777583 -0.412678831793 -0.161110092182 -0.350709786780
3.891018222000 -0.113015859679 -0.356551931857 0.856784322855 -0.420815582685 0.837722179775 -0.412526544725 -0.163081627278 -0.347601766091
3.892351333000 -0.111007883546 -0.358747567638 0.860838182276 -0.416185716759 0.838889536381 -0.410019164985 -0.162031859724 -0.348836095191
3.893684444000 -0.109907589659 -0.357916475111 0.855493803720 -0.417249032387 0.837009049820 -0.411315798808 -0.161936525068 -0.350635945053
3.895017555000 -0.109474468347 -0.356965515033 0.859246406388 -0.417059765568 0.837038656476 -0.411702123837 -0.162076340389 -0.353243199044
3.896350666000 -0.108387555322 -0.359640746806 0.862852538387 -0.415173688068 0.839524235152 -0.411133827411 -0.164017617658 -0.347812182287
3.897683777000 -0.106830671135 -0.362050489183 0.862297143664 -0.416734055802 0.839199673500 -0.412923456480 -0.165525446496 -0.345765207097
3.899016888000 -0.114870408517 -0.359441683747 0.861370221076 -0.420187967755 0.838032229771 -0.414608694574 -0.166367341555 -0.352366065444
3.900349999000 -0.111668159043 -0.356456688266 0.857949072610 -0.417509951929 0.836116163737 -0.413778700989 -0.162306276634 -0.351574451145
3.901683111000 -0.111721046584 -0.362039723858 0.862123822601 -0.422014752772 0.838562394841 -0.414840219476 -0.163447912165 -0.350289680271
3.903016222000 -0.114691167865 -0.355101527422 0.861966715114 -0.421760451689 0.833972357070 -0.413619945964 -0.161108143389 -0.348949806131
3.904349333000 -0.108211163177 -0.361782455363 0.861692366116 -0.414328781908 0.840462814308 -0.412501727090 -0.162393923695 -0.351894257038
3.905682444000 -0.111923337509 -0.361857422045 0.867663790396 -0.419621174572 0.843070760122 -0.419738795141 -0.168077668861 -0.352601009883
3.907015555000 -0.114944785507 -0.356553599798 0.865732821574 -0.418354091336 0.838845918411 -0.418732533026 -0.166274191640 -0.352616658627
3.908348666000 -0.112285718007 -0.354035287972 0.860636082671 -0.420523556227 0.838147531128 -0.414618510384 -0.165698509755 -0.355157381851
3.909681777000 -0.114906378091 -0.358635638767 0.868707081102 -0.421995739079 0.839734580280 -0.416496173865 -0.165066598545 -0.354195879056
3.911014888000 -0.106558012217 -0.358086553064 0.865712654811 -0.414865961909 0.838648618392 -0.411561540600 -0.168863800771 -0.346939596590
3.912347999000 -0.113689902666 -0.357697963330 0.864296207198 -0.422003429987 0.840246579022 -0.417909719836 -0.164544061376 -0.353174000493
3.913681111000 -0.115814463587 -0.357998191829 0.866085528432 -0.421706877144 0.840545691393 -0.418048818428 -0.166492771741 -0.352666257194
3.915014222000 -0.111111842008 -0.354098707111 0.863188417648 -0.423146763983 0.834311420480 -0.418034043738 -0.170899623486 -0.349437075714
3.916347333000 -0.108656770940 -0.354482811005 0.863562166709 -0.424396979682 0.837783539856 -0.416553541707 -0.167953427164 -0.356045420266
3.917680444000 -0.112506115783 -0.356063151166 0.861489762654 -0.428974827185 0.835488724443 -0.421478077474 -0.171234386874 -0.348149037568
3.919013555000 -0.109160228110 -0.356561191364 0.862440608518 -0.419346969866 0.839789016019 -0.416042607880 -0.163777781591 -0.353797302021
3.920346666000 -0.111931141828 -0.355961907773 0.860908535646 -0.421990912669 0.838088540203 -0.420237727258 -0.165413510529 -0.357400159053
3.921679777000 -0.108770415151 -0.350111535593 0.865672031818 -0.424866266023 0.838238062013 -0.424191330108 -0.169683816014 -0.358291634640
3.923012888000 -0.108944036843 -0.352536614062 0.865528414468 -0.430108669300 0.838737563648 -0.428228528538 -0.172377415007 -0.362093640926
3.924345999000 -0.109367388653 -0.353603221105 0.863567750962 -0.421817821234 0.840475072593 -0.422138800710 -0.166847715297 -0.353656255713
3.925679111000 -0.112562318394 -0.350789436861 0.865400375758 -0.421901637279 0.838993228670 -0.420826037111 -0.164911234884 -0.358411125919
3.927012222000 -0.110938938151 -0.354595337838 0.863277737527 -0.425123002245 0.838194848166 -0.421946493701 -0.165676642853 -0.350181344055
3.928345333000 -0.109765782667 -0.352655815419 0.859904594573 -0.422191783915 0.835751306779 -0.419455612626 -0.168112338800 -0.352790174277
3.929678444000 -0.111857956057 -0.349777266304 0.861094073935 -0.430289006199 0.833132188424 -0.424240440157 -0.177337338890 -0.352733999853
3.931011555000 -0.111803246066 -0.353673267823 0.861025630907 -0.424918296714 0.837660138241 -0.418806825933 -0.165892308996 -0.353753335688
3.932344666000 -0.105645306855 -0.350801332198 0.859949492187 -0.424654286614 0.834719993620 -0.417765209180 -0.175220875268 -0.354047116004
3.933677777000 -0.115472056677 -0.350267405489 0.860436323723 -0.427181700547 0.834169932535 -0.421632084538 -0.170044409175 -0.356328555778
3.935010888000 -0.112275103689 -0.353133398137 0.860593683442 -0.424174001723 0.834700635117 -0.417666767732 -0.166302822894 -0.347610737052
3.936343999000 -0.111059261690 -0.353261888557 0.862725081104 -0.423222550861 0.840792725915 -0.415571813314 -0.165266068249 -0.353948597632
3.937677111000 -0.109237897338 -0.352884861477 0.860710816000 -0.429461430253 0.834513065165 -0.420133581731 -0.172792720124 -0.349060303115
3.939010222000 -0.113244184201 -0.349819302815 0.863995183840 -0.429024862787 0.836916593014 -0.421256737739 -0.168974912730 -0.354177696904
3.940343333000 -0.107403021456 -0.350250340681 0.860672280119 -0.427990732907 0.834736935798 -0.420347290819 -0.172078912949 -0.351798781256
3.941676444000 -0.111727176520 -0.346269615188 0.861696576293 -0.428556784277 0.833780490758 -0.420019027350 -0.170139640452 -0.354443870529
3.943009555000 -0.112363808259 -0.350840178241 0.863584414142 -0.427875277343 0.836390172405 -0.419426386393 -0.167838969426 -0.355427547221
3.944342666000 -0.112011832113 -0.352267179378 0.860836665956 -0.431161698826 0.831216425898 -0.419686731600 -0.168900098236 -0.349451854981
3.945675777000 -0.108436660844 -0.349242584051 0.860490374182 -0.428641647540 0.834775998865 -0.420010402053 -0.171948724509 -0.356694799869
3.947008888000 -0.111029200688 -0.349739123675 0.861480327972 -0.429421386591 0.835683804663 -0.420953132936 -0.171806970493 -0.357088066303
3.948341999000 -0.110505885560 -0.351946641596 0.859758915051 -0.431642633104 0.830687448175 -0.425184686082 -0.174576673405 -0.353614586465
3.949675111000 -0.113788942141 -0.349374126260 0.860053242141 -0.431383284145 0.831655284647 -0.421998964333 -0.170183509639 -0.352418297018
3.951008222000 -0.107429326986 -0.350770830854 0.860803532339 -0.432640683200 0.837588711682 -0.423093883399 -0.172798987202 -0.356073007718
3.952341333000 -0.109658439707 -0.351804603905 0.858912406926 -0.434240610858 0.831217906350 -0.426512623405 -0.174545266946 -0.350125180242
3.953674444000 -0.111530985243 -0.347957550092 0.860141853436 -0.432259653871 0.835946650870 -0.424447159060 -0.172382890341 -0.355066953709
3.955007555000 -0.108250298909 -0.347527635017 0.861635255706 -0.432532296641 0.836334728273 -0.422923737365 -0.172528103104 -0.356712328405
3.956340666000 -0.109953053592 -0.350426081323 0.859542007340 -0.434738544176 0.833453381741 -0.423770785438 -0.173808766623 -0.353159177400
3.957673777000 -0.109886757975 -0.349631726124 0.859290538942 -0.434800519299 0.833664198298 -0.423428934765 -0.174396239899 -0.354255120066
3.959006888000 -0.108534543212 -0.348534026788 0.856468536334 -0.433627978524 0.829906095442 -0.425556307423 -0.174531560402 -0.352724242154
3.960339999000 -0.108249165691 -0.349272843325 0.858498270644 -0.435285499818 0.832886827280 -0.423442707080 -0.172802518801 -0.357347428562
3.961673111000 -0.110505255582 -0.348624820519 0.855567336717 -0.437425635827 0.833023441766 -0.426639326282 -0.177849539972 -0.355457798009
3.963006222000 -0.108870076728 -0.348734189840 0.855890774863 -0.435548367177 0.833381966810 -0.425346842240 -0.175192831595 -0.356597787163
3.964339333000 -0.109243591888 -0.349749569956 0.858035607259 -0.436772428745 0.834067379544 -0.423610134637 -0.176115861463 -0.355859471203
3.965672444000 -0.110057379605 -0.348483887014 0.859133881633 -0.436033951681 0.833337601159 -0.425735151949 -0.175551770020 -0.356796838570
3.967005555000 -0.109589368877 -0.347100730686 0.857385012061 -0.436442745503 0.833968156999 -0.426719175581 -0.174591983098 -0.357468937985
3.968338666000 -0.108956501040 -0.348599789667 0.852571305015 -0.439169080561 0.828558862803 -0.425549085722 -0.177189492162 -0.352888814839
3.969671777000 -0.110425920391 -0.349460642978 0.856445779108 -0.438224145171 0.830427187140 -0.426870246769 -0.175889464847 -0.356864190511
3.971004888000 -0.109467157041 -0.348012634056 0.854606745906 -0.437528214481 0.828022569184 -0.425789636465 -0.175596352147 -0.354773650673
3.972337999000 -0.109666856887 -0.348514516612 0.853815421109 -0.438866823459 0.832495868607 -0.426164983539 -0.177325257942 -0.359002927990
3.973671111000 -0.110156716145 -0.347541485446 0.855763325494 -0.440274152736 0.828907234362 -0.427535164499 -0.178365819240 -0.354955702647
3.975004222000 -0.109828492286 -0.348556407367 0.854525849022 -0.437886729335 0.830162065914 -0.420951316375 -0.174279238218 -0.356087879991
3.976337333000 -0.111340007931 -0.347532327639 0.854064668654 -0.440537876853 0.825865660082 -0.425335455623 -0.177086745485 -0.355058983211
3.977670444000 -0.113224112770 -0.350587314465 0.855138767225 -0.439170673357 0.828348254816 -0.425305621584 -0.176582962489 -0.355089057095
3.979003555000 -0.109771119014 -0.349995412796 0.852932612675 -0.439397679748 0.826799756727 -0.426020571053 -0.177881501405 -0.356511026924
3.980336666000 -0.109966443068 -0.348537833742 0.851871564374 -0.438019562159 0.829060295598 -0.426510972160 -0.179121015385 -0.358438420271
3.981669777000 -0.110358236480 -0.349749517955 0.849079954620 -0.442344570172 0.823866025771 -0.426762980230 -0.177644350627 -0.358580266613
3.983002888000 -0.111410027126 -0.349986656369 0.850257186784 -0.442276112155 0.824912297964 -0.426360324963 -0.177422135600 -0.356149999785
3.984335999000 -0.110225242900 -0.349557287152 0.845180048794 -0.441900167384 0.825924552131 -0.425566814584 -0.177722979775 -0.359498060089
3.985669111000 -0.110532910082 -0.349398190159 0.848993757263 -0.440058971094 0.821853307734 -0.427227319382 -0.178921091604 -0.358030757018
3.987002222000 -0.110298414978 -0.346432975617 0.848276670928 -0.438720584944 0.824194241083 -0.425177205590 -0.178895479292 -0.358094779742
3.988335333000 -0.110207235033 -0.348498562972 0.850452606964 -0.443216887872 0.824437201694 -0.428111771365 -0.178775686469 -0.357640984468
3.989668444000 -0.113283055544 -0.346731498177 0.849778706115 -0.443451320509 0.823475458486 -0.428496450563 -0.179553301385 -0.357906799105
3.991001555000 -0.115132287811 -0.347741494285 0.849851565970 -0.447279637067 0.822694505149 -0.429595814021 -0.179290056768 -0.358409205892
3.992334666000 -0.112949209754 -0.349226456991 0.851003183494 -0.442187975645 0.821994956064 -0.429013972393 -0.179599281632 -0.358642844304
3.993667777000 -0.112365658776 -0.350807364663 0.847064706003 -0.447803285485 0.822722792031 -0.429215487350 -0.178062977065 -0.361294522981
3.995000888000 -0.112848380425 -0.350390367581 0.850226587348 -0.443184065312 0.824482008584 -0.427945356121 -0.179013144394 -0.359761937189
3.996333999000 -0.117089276524 -0.352131365238 0.849979425283 -0.447860910825 0.823169164039 -0.431002666110 -0.178227276857 -0.359316136604
3.997667111000 -0.113829528674 -0.348688363934 0.847129766401 -0.443582391258 0.822125584979 -0.428794214285 -0.180143485014 -0.359508926327
3.999000222000 -0.118108689427 -0.343819124057 0.840319541744 -0.446754966006 0.820719065623 -0.431546547169 -0.182255449211 -0.360298175616
4.000333333000 -0.115632195091 -0.352497564972 0.849064483821 -0.445009047364 0.824454976722 -0.430328129763 -0.182382112444 -0.360367240348
4.001666444000 -0.112260398285 -0.348029117245 0.845471256078 -0.447738776272 0.821084454549 -0.429893303483 -0.178860933304 -0.362080107180
4.002999555000 -0.117720003647 -0.350246331047 0.848347972862 -0.445911878053 0.818698427011 -0.434520277652 -0.182560226146 -0.360946523903
4.004332666000 -0.112928035453 -0.350891447315 0.841902972752 -0.446530540726 0.819927543292 -0.431409248411 -0.185138841067 -0.362881023327
4.005665777000 -0.111388718732 -0.350941248843 0.841945904467 -0.443742736122 0.821028122287 -0.428196283502 -0.185834769494 -0.360258655025
4.006998888000 -0.113686088148 -0.346127804702 0.840880611783 -0.450799749104 0.816019480044 -0.429748596095 -0.181032388437 -0.363841226593
4.008331999000 -0.111755889105 -0.350953227745 0.840258056587 -0.447320648061 0.820858126650 -0.430176325655 -0.183877292143 -0.364731170983
4.009665111000 -0.111757693174 -0.348708075654 0.839200881719 -0.453595987360 0.816480170592 -0.433778211675 -0.183603414510 -0.366179319460
4.010998222000 -0.116197447812 -0.355115320365 0.842007354294 -0.445142250334 0.816450036172 -0.433310958529 -0.183706157186 -0.358563956699
4.012331333000 -0.115931305108 -0.351912796324 0.842577032491 -0.450557406177 0.817569943459 -0.435452052110 -0.187576765010 -0.366100218639
4.013664444000 -0.118210452627 -0.349211089493 0.839247350520 -0.449407801798 0.815987427471 -0.431951134253 -0.179878472776 -0.360638816408
4.014997555000 -0.120148591467 -0.347646903214 0.840410708200 -0.446099375033 0.818970373980 -0.434373813629 -0.183208305567 -0.365182553310
4.016330666000 -0.113423938310 -0.351153248888 0.838913700876 -0.450813912587 0.813628672076 -0.435463979209 -0.186487024145 -0.360403488106
4.017663777000 -0.112120875990 -0.343733503667 0.838678146116 -0.445447476722 0.815045211466 -0.435109870276 -0.185449708381 -0.367383189045
4.018996888000 -0.118397728432 -0.350228373250 0.838442253477 -0.447912226418 0.819091326096 -0.435277015054 -0.189786732555 -0.363036794799
4.020329999000 -0.115003083538 -0.348324960198 0.839203109194 -0.452687114032 0.816914778879 -0.433726790372 -0.187109635689 -0.369372931222
4.021663111000 -0.122747848855 -0.352510332727 0.841464214355 -0.449295616169 0.819698284436 -0.434183205106 -0.180062108523 -0.365461559717
4.022996222000 -0.128885768723 -0.353046323095 0.836953488297 -0.447193339565 0.812643771559 -0.429757774508 -0.179307747816 -0.365813853936
4.024329333000 -0.112464341510 -0.355149608017 0.837697848990 -0.449643239428 0.817426489153 -0.436577559563 -0.192507932339 -0.366216266436
4.025662444000 -0.112427860253 -0.356513670291 0.837913553049 -0.450082948107 0.813328917047 -0.436368562702 -0.192468116627 -0.366182226476
4.026995555000 -0.120276965133 -0.352790906678 0.837433583165 -0.448404393150 0.811866266305 -0.430139910237 -0.182333137705 -0.365064376464
4.028328666000 -0.120928277982 -0.355300492208 0.844984711286 -0.452448585714 0.816684022660 -0.438293659330 -0.186082649048 -0.365362581889
4.029661777000 -0.115325678884 -0.358269639156 0.841129775410 -0.446302511602 0.813178702894 -0.433171599477 -0.190138313904 -0.368086657901
4.030994888000 -0.120191488376 -0.357230171157 0.837056123619 -0.449081945979 0.812951365016 -0.432755553679 -0.184624744071 -0.368327796215
4.032327999000 -0.122840431536 -0.358205520373 0.845794667454 -0.448499739197 0.817705392065 -0.435141400238 -0.182526486168 -0.369539236913
4.033661111000 -0.115729506861 -0.346040321795 0.835002342441 -0.450996765220 0.815392399807 -0.435377843615 -0.184679936905 -0.378866139907
4.034994222000 -0.119836516910 -0.361837551379 0.836555155787 -0.445935003501 0.813933231073 -0.435410365893 -0.186203270486 -0.368452204284
4.036327333000 -0.124468189561 -0.352276644441 0.837921898515 -0.451085158220 0.809185395451 -0.427572253601 -0.178237243460 -0.368375962604
4.037660444000 -0.130131631719 -0.353893011167 0.834516426898 -0.452629122001 0.809232722271 -0.435346474502 -0.180503393785 -0.367367845336
4.038993555000 -0.122227730603 -0.354660314540 0.836865575307 -0.458794376537 0.810542103734 -0.444832699657 -0.192663520007 -0.371685405071
4.040326666000 -0.121186674082 -0.358977449921 0.836689252718 -0.454529156436 0.810310230032 -0.439727346154 -0.191585978118 -0.367912518222
4.041659777000 -0.122097500624 -0.354978005794 0.827901819433 -0.451980493221 0.806664919259 -0.439689384306 -0.186700744471 -0.368482062810
4.042992888000 -0.126025547691 -0.355025363215 0.832709915925 -0.455736487514 0.811433332630 -0.438001929424 -0.191942971431 -0.367520684878
4.044325999000 -0.124195234737 -0.359832828522 0.840819085623 -0.451453557640 0.813754194269 -0.441767789624 -0.189785802194 -0.375043514957
4.045659111000 -0.128246983387 -0.356201773573 0.831809608976 -0.447723211521 0.804107372239 -0.434403259687 -0.186547923557 -0.371923371478
4.046992222000 -0.134298073060 -0.351411216837 0.834202729029 -0.456865759276 0.811126384047 -0.438693603571 -0.184692826049 -0.379986906069
4.048325333000 -0.124355401591 -0.363844368738 0.839802109892 -0.451956105405 0.811328515172 -0.437809381744 -0.188478597751 -0.369070195536
4.049658444000 -0.120742380726 -0.357529807823 0.838249280604 -0.450067895557 0.815573774962 -0.433940735961 -0.186446139899 -0.378204588890
4.050991555000 -0.122318188539 -0.356487315736 0.832497191978 -0.451856209600 0.811440628988 -0.436033430296 -0.187731055196 -0.372502363983
4.052324666000 -0.131862405204 -0.354455026053 0.832120967966 -0.460177481872 0.810093465622 -0.441520357820 -0.182878289072 -0.380679507576
4.053657777000 -0.122974694338 -0.360877588976 0.834298657215 -0.447230056923 0.808761695418 -0.435649379830 -0.183682763565 -0.371284208435
4.054990888000 -0.122327137712 -0.353985636579 0.842154811003 -0.450737583358 0.820340887776 -0.433902679775 -0.187100747424 -0.380886858577
4.056323999000 -0.128730531590 -0.364185879585 0.835129208442 -0.449390140935 0.809440365006 -0.441823912076 -0.187698104498 -0.370610492701
4.057657111000 -0.119194995862 -0.358916491158 0.831242497087 -0.452136516370 0.812559967726 -0.437936679883 -0.193531309597 -0.376077467749
4.058990222000 -0.118997429584 -0.359335915365 0.828538393232 -0.451748945567 0.810369590371 -0.432076739437 -0.194225618248 -0.370648487357
4.060323333000 -0.129910028768 -0.360569358247 0.830908133435 -0.446141916664 0.814225161893 -0.435680115705 -0.185079012908 -0.376367743548
4.061656444000 -0.129143259649 -0.363656006964 0.833097994648 -0.448507658180 0.804801227827 -0.435479986276 -0.193486166936 -0.373453117059
4.062989555000 -0.125947080802 -0.367382402192 0.836995693194 -0.449039318892 0.810685982485 -0.436813517593 -0.185683132299 -0.379359963693
4.064322666000 -0.127932990545 -0.362887249160 0.837519476466 -0.449595373307 0.808008651979 -0.437099490521 -0.187011369886 -0.377897247927
4.065655777000 -0.128115194945 -0.361355713776 0.829658799661 -0.449889961115 0.806393118625 -0.435879760093 -0.190249197750 -0.375440569147
4.066988888000 -0.132181063483 -0.363222036546 0.829604384848 -0.455193442279 0.801729624512 -0.439152590038 -0.189586854271 -0.376319418425
4.068321999000 -0.128195289650 -0.367218856152 0.839275581023 -0.453455379664 0.818473010438 -0.437430584237 -0.189401560008 -0.382087638474
4.069655111000 -0.133464263479 -0.370832546477 0.830400066449 -0.448250159809 0.813212040933 -0.435005190748 -0.185726587155 -0.375887083260
4.070988222000 -0.131383355602 -0.369443621890 0.831201401095 -0.449654155672 0.806959053815 -0.436136523121 -0.188712041079 -0.372025120862
4.072321333000 -0.125635319965 -0.362857006635 0.835632412352 -0.454886688398 0.810576968232 -0.439751141852 -0.192854360194 -0.383233446203
4.073654444000 -0.126213347795 -0.372852589081 0.834433445694 -0.443067798856 0.813990947160 -0.429822807999 -0.185911669254 -0.375699391951
4.074987555000 -0.128478769601 -0.372462098425 0.829165941143 -0.451280833511 0.807573729034 -0.440976796450 -0.190339994466 -0.378083616842
4.076320666000 -0.123501650330 -0.367536799478 0.829789583851 -0.450455350718 0.805963991220 -0.437172633709 -0.196919914413 -0.381208802301
4.077653777000 -0.132645339631 -0.366675746450 0.827681995109 -0.455205645624 0.804877624387 -0.440172275250 -0.191581072400 -0.380078761824
4.078986888000 -0.135524460312 -0.370670189833 0.833792281122 -0.450565024156 0.813740549372 -0.438864487096 -0.188638833136 -0.382026726741
4.080319999000 -0.131028078538 -0.367162546900 0.828714996406 -0.449487027358 0.807886027603 -0.436870305255 -0.193083475846 -0.379669892364
4.081653111000 -0.126952644135 -0.365215050545 0.830444817670 -0.449085684647 0.810706745742 -0.436437525634 -0.191138151902 -0.386055505373
4.082986222000 -0.129430359495 -0.371609075372 0.833895563233 -0.451099030857 0.812766340172 -0.439908864232 -0.193566682569 -0.384248815853
4.084319333000 -0.133109783107 -0.377114748153 0.829112692244 -0.453590033873 0.805850123077 -0.442286087718 -0.194597444730 -0.374487091837
4.085652444000 -0.137513676899 -0.373474613529 0.831638516963 -0.450681754298 0.806156519218 -0.435482388695 -0.186998598969 -0.374139271922
4.086985555000 -0.127982964062 -0.375922678383 0.832929696092 -0.447757980886 0.812198584860 -0.437268214588 -0.188757009447 -0.380275838228
4.088318666000 -0.134392445913 -0.368941211581 0.828206450932 -0.447049365950 0.805773324302 -0.436209556586 -0.187097067763 -0.378726896516
4.089651777000 -0.135729894878 -0.373520771521 0.826728488710 -0.455659530569 0.802681959886 -0.441308032245 -0.193331923269 -0.375311402088
4.090984888000 -0.137001588333 -0.374620844222 0.829724169880 -0.449684668660 0.806592532190 -0.438888693719 -0.185451994404 -0.377395373252
4.092317999000 -0.131971357908 -0.376401066488 0.832508733116 -0.449890456514 0.811934369152 -0.434601898097 -0.186888839750 -0.377241646042
4.093651111000 -0.130804046437 -0.374295286809 0.828602239112 -0.451124477859 0.802735758487 -0.437273121612 -0.190321945523 -0.379375004825
4.094984222000 -0.135739375363 -0.372944765098 0.831539824574 -0.450203209126 0.812979469328 -0.436405795851 -0.185388436491 -0.384081341845
4.096317333000 -0.134502823294 -0.378550192813 0.827590466637 -0.450823521756 0.810213910463 -0.436012662832 -0.185323923144 -0.381190149968
4.097650444000 -0.130784276998 -0.376531193186 0.824886941776 -0.449111223731 0.803101034282 -0.435905730196 -0.191109376222 -0.376036683455
4.098983555000 -0.131654778621 -0.376459948134 0.827906523786 -0.444569372227 0.803627034162 -0.426703112168 -0.185866051190 -0.375542456149
4.100316666000 -0.130458231664 -0.380246989849 0.834391495005 -0.452256257420 0.809544301002 -0.439159862401 -0.192276188586 -0.382039090969
4.101649777000 -0.132443287574 -0.382678845696 0.836835700971 -0.451576538002 0.815159946149 -0.435997310512 -0.187368360677 -0.380448685553
4.102982888000 -0.128774707589 -0.382044618479 0.830201361623 -0.446010096583 0.809905689976 -0.431577216125 -0.188483489097 -0.378425230131
4.104315999000 -0.127259733924 -0.380184147959 0.835848598656 -0.445103101953 0.811989132275 -0.429782513229 -0.187013510175 -0.379254548055
4.105649111000 -0.131306832556 -0.382837942790 0.831552144071 -0.449969870501 0.806273267884 -0.432385825979 -0.189569862952 -0.376960154233
4.106982222000 -0.126941674314 -0.383093814495 0.835991415537 -0.448169960344 0.812818149105 -0.430674246812 -0.185185563528 -0.379897989887
4.108315333000 -0.131290435339 -0.381489831384 0.833811365163 -0.448785323370 0.812157969509 -0.431815665530 -0.187675822464 -0.380170584304
4.109648444000 -0.131859526999 -0.383698545182 0.836691567584 -0.443156539757 0.812151609349 -0.429075970061 -0.185254045987 -0.373841795214
4.110981555000 -0.127533647788 -0.382977814006 0.834686167923 -0.445469644462 0.810463743038 -0.430547171935 -0.187275565558 -0.377665433599
4.112314666000 -0.131271986984 -0.385022535180 0.832457941581 -0.444658733141 0.808673100364 -0.431214610647 -0.188879252706 -0.379118085731
4.113647777000 -0.127751277502 -0.388574582120 0.832879387436 -0.447828376058 0.807828486992 -0.432793758992 -0.194064806634 -0.375234117740
4.114980888000 -0.129937283819 -0.384818547280 0.836602075316 -0.442349258872 0.810739280349 -0.427430110270 -0.188818855812 -0.375519395585
4.116313999000 -0.129105622459 -0.386090749709 0.834502651344 -0.443359809013 0.810862423669 -0.426979541797 -0.187598844020 -0.378055663233
4.117647111000 -0.126861454050 -0.387915222793 0.836442637461 -0.444599066942 0.812710102395 -0.428676847450 -0.188640863408 -0.378800242133
4.118980222000 -0.127633581071 -0.386511161027 0.838686986245 -0.443251538909 0.812335201631 -0.426449043234 -0.188264831211 -0.376682484078
4.120313333000 -0.126328854528 -0.388131141610 0.835854951965 -0.441727693491 0.810823085277 -0.424459592494 -0.191480525738 -0.373531053153
4.121646444000 -0.125158550484 -0.391590668429 0.841496315919 -0.442419676077 0.816836011777 -0.427863782392 -0.188814190717 -0.378200171554
4.122979555000 -0.124898016084 -0.390930739175 0.837986522643 -0.443205391799 0.813236080778 -0.427928338690 -0.188666040974 -0.376764819661
4.124312666000 -0.124630814597 -0.389889253502 0.837542631957 -0.439912978297 0.812773612608 -0.427140908663 -0.190944093967 -0.378549478357
4.125645777000 -0.126221820858 -0.391324046212 0.837804774377 -0.437764802215 0.811889223108 -0.422383169326 -0.189608957242 -0.376527929386
4.126978888000 -0.123783636547 -0.393463593888 0.841094034013 -0.435828946544 0.812260551050 -0.425081284379 -0.191394963526 -0.376838252194
4.128311999000 -0.123117093074 -0.394669528604 0.844974297671 -0.437477517940 0.814332690273 -0.425541401946 -0.190927847811 -0.377092420692
4.129645111000 -0.123610532753 -0.392499491872 0.840907010202 -0.436461235351 0.815285958746 -0.420173057082 -0.189649345774 -0.373024856903
4.130978222000 -0.122394784372 -0.392927619936 0.843444658451 -0.440654670474 0.816696330333 -0.424215829674 -0.186868020749 -0.378252777014
4.132311333000 -0.119747516738 -0.392589269921 0.842161713205 -0.435319658557 0.818684104668 -0.424791954344 -0.189430862281 -0.376226232329
4.133644444000 -0.123125618875 -0.392603983720 0.845827189683 -0.435617419947 0.816487952284 -0.422038104101 -0.190139316927 -0.375463244548
4.134977555000 -0.121845284103 -0.390452417501 0.843044223193 -0.436925980612 0.816023412108 -0.423058212151 -0.189565296951 -0.376762220481
4.136310666000 -0.120611059560 -0.397614534901 0.842894132270 -0.432256722825 0.819955357265 -0.424853970514 -0.189352384802 -0.377442961323
4.137643777000 -0.119943514455 -0.394534084321 0.845989675682 -0.434248825613 0.813555243356 -0.420187743187 -0.188017878764 -0.376045988600
4.138976888000 -0.122197664705 -0.393924362532 0.847937795909 -0.432696815221 0.814957272708 -0.419744741886 -0.189093893220 -0.378642949244
4.140309999000 -0.118505116719 -0.396953750299 0.846087823073 -0.433087035326 0.818369803169 -0.420258088483 -0.188845320849 -0.377278245409
4.141643111000 -0.117938816308 -0.397066895452 0.846944575197 -0.428959679233 0.821303082892 -0.418696686420 -0.188717949384 -0.375672618249
4.142976222000 -0.118805902229 -0.398617972062 0.846241476542 -0.427716855466 0.819723445359 -0.419202859944 -0.186988251123 -0.376593864762
4.144309333000 -0.117598909733 -0.398243546717 0.847486904117 -0.426156109088 0.819882677347 -0.417821916752 -0.192451951144 -0.375188690898
4.145642444000 -0.118118427740 -0.399618105760 0.847505827993 -0.428807853040 0.821919564380 -0.417582001522 -0.189644818978 -0.377482201596
4.146975555000 -0.113169040334 -0.397511496944 0.848395301961 -0.426415667211 0.819647593663 -0.414609376937 -0.186700088661 -0.379540511623
4.148308666000 -0.115363939367 -0.395487869754 0.851798319023 -0.421686079629 0.824997656394 -0.411233387438 -0.187574204326 -0.377885128552
4.149641777000 -0.117855956047 -0.393946990231 0.849342430782 -0.422578917042 0.823847350173 -0.407245211887 -0.181724633889 -0.376878399766
4.150974888000 -0.117286056131 -0.398613512028 0.855364010251 -0.423566556370 0.826300439430 -0.414684890517 -0.184048050819 -0.377907578361
4.152307999000 -0.114468112291 -0.393541245989 0.850828855694 -0.419822774395 0.823693885545 -0.404467995673 -0.184995305248 -0.379600665938
4.153641111000 -0.113431672593 -0.393237505244 0.849337178271 -0.419488101847 0.824370681198 -0.409512458903 -0.187291002283 -0.379543081569
4.154974222000 -0.116874360998 -0.394147919085 0.855449148722 -0.425533350008 0.826205399291 -0.408379099442 -0.183252643167 -0.383035020496
4.156307333000 -0.114288007568 -0.396478720928 0.855986869536 -0.413973938575 0.826026643800 -0.405660482578 -0.181379495414 -0.374273203566
4.157640444000 -0.109226369549 -0.394062924445 0.849251154973 -0.415557272256 0.826603210439 -0.407139501939 -0.185868763881 -0.379511912297
4.158973555000 -0.110224366255 -0.396869354331 0.848884512151 -0.420689834320 0.818660200305 -0.410689416825 -0.192581134881 -0.376147395031
4.160306666000 -0.108727473227 -0.400195992085 0.854815706027 -0.415303947243 0.823248479902 -0.409077135107 -0.185799499596 -0.373774559044
4.161639777000 -0.107752959422 -0.401950750817 0.853659652844 -0.412735167620 0.825502943499 -0.407904906028 -0.187500406943 -0.373922526506
4.162972888000 -0.107254380225 -0.410045848616 0.858169898092 -0.414567025639 0.826347194902 -0.411218022679 -0.186363211435 -0.378229079629
4.164305999000 -0.109766629850 -0.399453218948 0.853359819962 -0.414740145740 0.823366402396 -0.412090659835 -0.190446480398 -0.372483941028
4.165639111000 -0.106579519252 -0.400445760902 0.854402298434 -0.412390730391 0.826767729780 -0.411005401523 -0.192863981499 -0.376109242519
4.166972222000 -0.106527135863 -0.406554163064 0.854691345257 -0.414511501873 0.829120391435 -0.412542285112 -0.194427949058 -0.374675754231
4.168305333000 -0.110414070912 -0.406424605070 0.861012190133 -0.417144592339 0.829423689219 -0.414013067438 -0.197020490503 -0.377029385564
4.169638444000 -0.108276117136 -0.400257559746 0.861349855675 -0.413345186209 0.822859722873 -0.405004209082 -0.185926517249 -0.374748048343
4.170971555000 -0.106539104756 -0.402254757958 0.856246656574 -0.412112916271 0.822723973143 -0.406531926554 -0.188900595016 -0.370791228880
4.172304666000 -0.102589680492 -0.404903696022 0.856878258962 -0.413993312443 0.829587139299 -0.408772524495 -0.193156949945 -0.377138664383
4.173637777000 -0.105899339047 -0.401947120513 0.857421141330 -0.414122151106 0.825465277329 -0.411641242149 -0.198127107942 -0.372894351230
4.174970888000 -0.105583174685 -0.401176330343 0.861497578603 -0.413523276660 0.831592702246 -0.409867340438 -0.189839861673 -0.381761201163
4.176303999000 -0.104811867049 -0.402037692711 0.864246314878 -0.416206385664 0.826878751441 -0.408525635549 -0.194773651102 -0.379032849093
4.177637111000 -0.103255990148 -0.399473738886 0.857808213245 -0.411078016069 0.825999801097 -0.407488138028 -0.192760169294 -0.380782960414
4.178970222000 -0.100206528038 -0.403880549135 0.859125594818 -0.412899348142 0.832042260466 -0.409978188316 -0.194561915049 -0.379568259600
4.180303333000 -0.106636451564 -0.400747458627 0.862047736307 -0.410870358075 0.827984972402 -0.407260325276 -0.189205377276 -0.378357371537
4.181636444000 -0.104780110920 -0.397015801048 0.855302141122 -0.410492483001 0.823322508689 -0.407137269941 -0.192096267350 -0.378374225763
4.182969555000 -0.104832939983 -0.399567148492 0.857829684344 -0.408865651397 0.827266596037 -0.407091917834 -0.195211651822 -0.377614431736
4.184302666000 -0.103704104288 -0.399858174318 0.854530315045 -0.410723417251 0.823871467125 -0.407613744270 -0.192543461365 -0.376110401218
4.185635777000 -0.107804676536 -0.397184519866 0.856269380433 -0.411942842214 0.820777175949 -0.409173945540 -0.192408161612 -0.379817772703
4.186968888000 -0.106418407755 -0.397458165896 0.858355959355 -0.412524526820 0.826255503388 -0.409736366484 -0.195027271896 -0.380028896589
4.188301999000 -0.103813899545 -0.398906666663 0.856279031895 -0.409991285458 0.823498585525 -0.409003004905 -0.191976726930 -0.377243067219
4.189635111000 -0.106520191543 -0.402565888496 0.862411463807 -0.411283143527 0.829435185062 -0.409923775377 -0.195737691272 -0.384289968843
4.190968222000 -0.105150368580 -0.391293895693 0.855866871088 -0.410511612679 0.822692678570 -0.407226847920 -0.190779012845 -0.382399091334
4.192301333000 -0.109081302097 -0.394997310301 0.858279738706 -0.409866523266 0.821284628119 -0.409057264494 -0.192726882557 -0.383151491108
4.193634444000 -0.100441131514 -0.389576777327 0.851053354883 -0.412408625602 0.821945480994 -0.406914414461 -0.198439362828 -0.385349440873
4.194967555000 -0.103409731912 -0.393502055679 0.853195131552 -0.411702762889 0.820565374388 -0.409450379436 -0.202167956303 -0.380698515682
4.196300666000 -0.099906224402 -0.397166506976 0.858088317682 -0.405047179061 0.823867394479 -0.408296312450 -0.195376905334 -0.382364186468
4.197633777000 -0.105481278130 -0.393221997859 0.855177065397 -0.411514242258 0.820800499568 -0.408520935909 -0.197431193456 -0.378807652432
4.198966888000 -0.104335551834 -0.388098091769 0.847349267585 -0.415473108382 0.815592567755 -0.411475413380 -0.200813302583 -0.380236184940
4.200299999000 -0.110142700337 -0.393403090749 0.851978396859 -0.415114384111 0.815640174467 -0.413693755241 -0.189692620227 -0.379475159196
4.201633111000 -0.106764453998 -0.393975317637 0.851882428375 -0.415270205067 0.819603152072 -0.415096650732 -0.196573132167 -0.379645863890
4.202966222000 -0.105297250797 -0.388518784947 0.847843245577 -0.415772540004 0.815912024872 -0.412778234699 -0.199382937963 -0.376469522596
4.204299333000 -0.100427806719 -0.389643221602 0.848777653959 -0.414107284633 0.817401638792 -0.412823779343 -0.201536380362 -0.379586288515
4.205632444000 -0.110183574439 -0.389396669443 0.851899683168 -0.415853014221 0.814589900468 -0.414117315417 -0.197502821635 -0.383372058677
4.206965555000 -0.104790501797 -0.389476187300 0.846406260854 -0.416107770255 0.814700672676 -0.414398309056 -0.200608169987 -0.374737982564
4.208298666000 -0.105370815811 -0.390786751356 0.851162017392 -0.413785880431 0.817417704330 -0.413817738663 -0.194660938851 -0.378276580276
4.209631777000 -0.108568958279 -0.385763263036 0.846258490445 -0.416153002389 0.812441003906 -0.413187561791 -0.196210219586 -0.376636931249
4.210964888000 -0.106904571283 -0.395374897068 0.845802948847 -0.413290591088 0.815518762684 -0.414854925096 -0.198515086271 -0.378301043561
4.212297999000 -0.111978123960 -0.391428659545 0.848432486011 -0.419061089640 0.814546836879 -0.417161407149 -0.195463629642 -0.381809932722
4.213631111000 -0.109160242345 -0.387375525034 0.847134703552 -0.418713646908 0.812227401017 -0.418554483588 -0.203785614295 -0.381284736450
4.214964222000 -0.108765199339 -0.387481577649 0.844683685024 -0.422370502732 0.808842868126 -0.416502468423 -0.203127176004 -0.376286580932
4.216297333000 -0.111019263829 -0.386783931043 0.843221444669 -0.422401691171 0.811066666047 -0.418165793007 -0.197936178847 -0.379192859137
4.217630444000 -0.116050177632 -0.388538750397 0.838210697104 -0.425546066401 0.806332252365 -0.420799730683 -0.200525200525 -0.377156527646
4.218963555000 -0.113136523743 -0.380562768359 0.836879173448 -0.420708210928 0.804284335791 -0.418434333817 -0.196370449675 -0.381046070241
4.220296666000 -0.117892068173 -0.385238940006 0.842024781060 -0.427174200345 0.806153843323 -0.423805719922 -0.200156788431 -0.382607592840
4.221629777000 -0.113288634155 -0.390791489857 0.841847342836 -0.424439217653 0.807079243034 -0.422334216817 -0.195477629204 -0.379308669505
4.222962888000 -0.118690242931 -0.381202633296 0.834038719149 -0.430649100324 0.800253473007 -0.424539875676 -0.204813905303 -0.379418135685
4.224295999000 -0.113784111616 -0.384435710527 0.835795063014 -0.428126051188 0.802947754938 -0.425510014781 -0.206447834280 -0.375240292566
4.225629111000 -0.116732749821 -0.386482523464 0.833028760551 -0.433435330211 0.803020592822 -0.429173341210 -0.210179913120 -0.378490898598
4.226962222000 -0.123416165389 -0.380679984698 0.831351924639 -0.432626010345 0.799215703327 -0.426182104436 -0.203233029930 -0.373652920980
4.228295333000 -0.117490994093 -0.386089352899 0.833946709720 -0.433028455108 0.803167813577 -0.428341859314 -0.202305565775 -0.377857660902
4.229628444000 -0.118125594273 -0.383922041284 0.832730933530 -0.434163474059 0.799074526830 -0.426938815068 -0.207104763300 -0.373881747420
4.230961555000 -0.115010257871 -0.383458125426 0.831707081158 -0.432248819904 0.800689034337 -0.424823897131 -0.202922745816 -0.374609265939
4.232294666000 -0.113181062624 -0.386351081743 0.834800688628 -0.434991682685 0.800679180555 -0.428329748564 -0.203217449019 -0.377786117832
4.233627777000 -0.120922478250 -0.382119859059 0.827175704780 -0.440868809292 0.795642874444 -0.433195909699 -0.211727049102 -0.374924143725
4.234960888000 -0.123867521587 -0.381858576680 0.832353012767 -0.443442603061 0.801059439938 -0.438041685069 -0.207226692796 -0.384917550009
4.236293999000 -0.118130260248 -0.384895886808 0.827248630176 -0.441753017843 0.795442286263 -0.434190879664 -0.210722682881 -0.375306269009
4.237627111000 -0.120906218848 -0.380958469276 0.824933542618 -0.442164388464 0.796136860063 -0.432537846463 -0.208318310356 -0.375880682858
4.238960222000 -0.119175633168 -0.386932095859 0.829780498788 -0.445950503746 0.796365573343 -0.436236572127 -0.211904163480 -0.376995555851
4.240293333000 -0.120571332406 -0.384691299964 0.826635616607 -0.448310220272 0.795404770963 -0.435492189067 -0.212396861591 -0.371995328432
4.241626444000 -0.121626738015 -0.381965722701 0.826098741306 -0.448638816717 0.794761542262 -0.438533679592 -0.213587246767 -0.378676554246
4.242959555000 -0.124254419420 -0.378656506668 0.819350123503 -0.449439106402 0.791341047934 -0.439483293342 -0.213982250997 -0.377591448346
4.244292666000 -0.122813615265 -0.380758028695 0.823007007554 -0.451627479434 0.794402637581 -0.439663954206 -0.215241585824 -0.375922969326
4.245625777000 -0.119984991219 -0.383686795439 0.820588131790 -0.452638139191 0.791280614222 -0.438590836521 -0.216399657024 -0.371215517310
4.246958888000 -0.118417390236 -0.383574105568 0.821801836581 -0.453919964646 0.791796945857 -0.441509857538 -0.216163917325 -0.375270430933
4.248291999000 -0.123988809559 -0.380047028506 0.816487722593 -0.456332099484 0.790694472381 -0.439824872466 -0.216203697689 -0.372797659430
4.249625111000 -0.122706938374 -0.381236959418 0.815820339992 -0.455227456096 0.786895487635 -0.442880410724 -0.219551503606 -0.374203595847
4.250958222000 -0.121433918897 -0.377795535921 0.816225418986 -0.454774996520 0.788659940639 -0.444894725156 -0.220510109962 -0.374478631840
4.252291333000 -0.121581477737 -0.380742800579 0.814736724069 -0.458145059938 0.788008155260 -0.443823341149 -0.220499939847 -0.373987835273
4.253624444000 -0.122089171404 -0.382343208359 0.817600867899 -0.459792446687 0.790451546473 -0.443617986285 -0.220017191904 -0.375266641407
4.254957555000 -0.123368284505 -0.382905253397 0.815240555794 -0.461823442010 0.787511294865 -0.444005452067 -0.220752389082 -0.372466971735
4.256290666000 -0.122941638442 -0.379046218631 0.808952891727 -0.461913755683 0.784840374742 -0.446545370559 -0.223562544995 -0.374213804459
4.257623777000 -0.121914991809 -0.382620357837 0.811347319165 -0.464259701137 0.784270672068 -0.446790534338 -0.223523781315 -0.373295865682
4.258956888000 -0.123600462931 -0.383022762828 0.810244754428 -0.465830778744 0.786245521889 -0.450822127420 -0.224313116499 -0.373993627495
4.260289999000 -0.125241428937 -0.382821712943 0.808359678873 -0.468526394666 0.779482161112 -0.448999868495 -0.225866357423 -0.372711012998
4.261623111000 -0.122321314909 -0.383252537252 0.811858759384 -0.470582783921 0.784518331414 -0.452030280045 -0.227062145920 -0.375790016127
4.262956222000 -0.124172683907 -0.380414212634 0.805419614903 -0.469984061742 0.781116831551 -0.449697633951 -0.225772971455 -0.373342959210
4.264289333000 -0.122082817587 -0.379822298149 0.804997955905 -0.469627948527 0.779743153433 -0.453433862196 -0.229701180424 -0.371732942188
4.265622444000 -0.125042742149 -0.381402858802 0.804762123836 -0.472354308591 0.779475332425 -0.451176961003 -0.228148990098 -0.373843486206
4.266955555000 -0.124159720313 -0.380583204563 0.803441791457 -0.473470578537 0.776896245599 -0.451840814305 -0.228610793230 -0.372141033332
4.268288666000 -0.125516244282 -0.382180094816 0.802512190747 -0.474997627531 0.775361409637 -0.453390965423 -0.229227055378 -0.375792159208
4.269621777000 -0.124107334935 -0.383211543347 0.801064734485 -0.475025513952 0.779084596769 -0.454001077377 -0.231765271837 -0.373751755684
4.270954888000 -0.121558837303 -0.380936147832 0.802735528212 -0.478241475954 0.780355286176 -0.454278094472 -0.229986171301 -0.372618692922
4.272287999000 -0.124484165239 -0.381942752818 0.799788107945 -0.479265489237 0.775745107846 -0.457304812106 -0.234135972862 -0.372714366853
4.273621111000 -0.125749376229 -0.382997036007 0.802543305537 -0.478868577716 0.777321315010 -0.458682558676 -0.232563362331 -0.377237226296
4.274954222000 -0.124607911614 -0.385054352113 0.798225484151 -0.480957457956 0.775695519802 -0.459738689273 -0.234486747284 -0.376253741918
4.276287333000 -0.123389225440 -0.383906077857 0.800489306093 -0.481651769056 0.774430565248 -0.460642135995 -0.234410663383 -0.376740875383
4.277620444000 -0.123929481623 -0.384785581146 0.795637415281 -0.482064288092 0.771410426530 -0.459589621933 -0.233785445227 -0.373526815285
4.278953555000 -0.123402276720 -0.385542553389 0.798879741673 -0.482434826552 0.773172915988 -0.460456440736 -0.233032100046 -0.374421737916
4.280286666000 -0.125084793343 -0.382847358045 0.793762921726 -0.485046770952 0.770627955345 -0.461028559449 -0.237219775393 -0.373816297279
4.281619777000 -0.124382245636 -0.383745014488 0.799768802847 -0.487702444356 0.771833221316 -0.462520567397 -0.236444138771 -0.378839374371
4.282952888000 -0.123789241427 -0.383297888090 0.792037449602 -0.484630617577 0.767536157028 -0.462720829028 -0.239771393220 -0.376333926016
4.284285999000 -0.123385187695 -0.388664822100 0.793465206918 -0.484867996044 0.765986575397 -0.463577097639 -0.236311090774 -0.372558400587
4.285619111000 -0.130278508362 -0.389325755964 0.794206450830 -0.490542617890 0.761294084472 -0.462459822314 -0.238734600545 -0.377578342933
4.286952222000 -0.123722646026 -0.384869436569 0.789542809928 -0.488779016242 0.769863533723 -0.461752065787 -0.242733777712 -0.372812590519
4.288285333000 -0.120091339072 -0.388648537708 0.789922238664 -0.490464022320 0.767359121064 -0.467177888994 -0.241489292816 -0.375250134736
4.289618444000 -0.121920171713 -0.389394339951 0.793826257846 -0.491951260617 0.768222581197 -0.464632905013 -0.244779002056 -0.374242053501
4.290951555000 -0.120109096730 -0.385822541267 0.790830008779 -0.494164881313 0.771737649826 -0.468330302883 -0.251006838294 -0.378000418210
4.292284666000 -0.120522771343 -0.387790250108 0.784546680868 -0.489716369875 0.759143951970 -0.465047907238 -0.243912686361 -0.370566209924
4.293617777000 -0.121833697007 -0.388055797102 0.789539911995 -0.496170531317 0.763037948507 -0.466823194794 -0.244043394773 -0.374682299316
4.294950888000 -0.120973105416 -0.382484194511 0.787085843419 -0.496518325051 0.761510442671 -0.470543266024 -0.247519163570 -0.373807945818
4.296283999000 -0.120447117733 -0.385079100354 0.779906257511 -0.498354152209 0.762356316105 -0.465312346698 -0.247304038192 -0.371347450781
4.297617111000 -0.118270569531 -0.388207477988 0.785620005105 -0.493381665342 0.763587574038 -0.465932165831 -0.242126651983 -0.376157691904
4.298950222000 -0.120576754451 -0.387068063419 0.777528565818 -0.492962156020 0.757684934298 -0.464977163421 -0.242732198785 -0.369043126494
4.300283333000 -0.121661311987 -0.392604376775 0.777658745797 -0.493474365785 0.756098290037 -0.468271335993 -0.248308276196 -0.370457342882
4.301616444000 -0.120418717425 -0.385937281346 0.782380907174 -0.497217477341 0.764568334442 -0.465842564062 -0.247598050226 -0.372553490761
4.302949555000 -0.130372679792 -0.392687168414 0.778603269992 -0.496369375741 0.749356003647 -0.465386853239 -0.240160197337 -0.372504773262
4.304282666000 -0.116427278482 -0.393302969929 0.781198879176 -0.498219771019 0.760780927769 -0.474050623341 -0.242075073352 -0.375346456264
4.305615777000 -0.122191853320 -0.383652806115 0.779756045099 -0.498108902277 0.755142444018 -0.472350494157 -0.245641106039 -0.374294385443
4.306948888000 -0.117582575674 -0.386809460861 0.781282703600 -0.501698213501 0.765129713372 -0.471192454034 -0.250412018127 -0.381947753789
4.308281999000 -0.128303753091 -0.387271063180 0.773208019897 -0.505696219161 0.754965814870 -0.474664876345 -0.250965369371 -0.374785049026
4.309615111000 -0.125329525894 -0.393892061805 0.774512224706 -0.501316154167 0.755195699984 -0.469196930377 -0.240472873806 -0.373557499664
4.310948222000 -0.123095131504 -0.389740524532 0.772386377251 -0.495862844158 0.754405195364 -0.468442222774 -0.242535042918 -0.373401302203
4.312281333000 -0.121656923987 -0.390118474466 0.773927366014 -0.500101771743 0.753258237605 -0.474773091240 -0.244434719978 -0.375208178429
4.313614444000 -0.119719437145 -0.395013777065 0.770147831881 -0.513407597727 0.752227509342 -0.483684889120 -0.261725033475 -0.374196124946
4.314947555000 -0.122693355434 -0.391172945008 0.767941770545 -0.508658313406 0.749299717150 -0.479423945526 -0.251553297325 -0.377302061993
4.316280666000 -0.123171576601 -0.391946837747 0.763070700192 -0.506022447962 0.744169832917 -0.473509318249 -0.248894102484 -0.373422442444
4.317613777000 -0.116180205856 -0.387648344152 0.768255886216 -0.511563804721 0.746150413296 -0.477896369463 -0.262470563909 -0.379066214101
4.318946888000 -0.128255279143 -0.389891668409 0.769249035348 -0.513868969384 0.749862897191 -0.482055939143 -0.258006866650 -0.385312061974
4.320279999000 -0.121306596833 -0.383909752053 0.761401297344 -0.507602023491 0.742558686388 -0.473125777609 -0.256871673762 -0.374624707353
4.321613111000 -0.117515621208 -0.393540912134 0.770776194126 -0.499419290478 0.748936887772 -0.473114848499 -0.251142190321 -0.374066420311
4.322946222000 -0.118123329488 -0.391833119266 0.767086776985 -0.509440556600 0.748140869228 -0.482677017325 -0.259185091751 -0.387755436366
4.324279333000 -0.119109794935 -0.392912825009 0.764504792085 -0.507345801105 0.745277929319 -0.472671410023 -0.257346113396 -0.377636315411
4.325612444000 -0.123602752565 -0.393742670323 0.765217067808 -0.508535757585 0.745051481993 -0.477734658075 -0.247833626079 -0.379630509196
4.326945555000 -0.128518962342 -0.394094096260 0.760868324040 -0.505524773194 0.739859190335 -0.477174328347 -0.248095934316 -0.378538035270
4.328278666000 -0.116038403076 -0.402562422687 0.767295452671 -0.508475796010 0.751929620920 -0.478335389928 -0.253433493262 -0.376393643421
4.329611777000 -0.124548279093 -0.393930996737 0.758007736061 -0.508120380093 0.740549339517 -0.476872597486 -0.253909230381 -0.376718325001
4.330944888000 -0.130178775284 -0.390121788036 0.754927749669 -0.508562739501 0.740896454628 -0.477788110883 -0.253519604999 -0.383986468171
4.332277999000 -0.118981136598 -0.396650041228 0.764515051597 -0.512789342531 0.749100033279 -0.479705629790 -0.252743425341 -0.387721729499
4.333611111000 -0.126669439485 -0.399318192166 0.767013903202 -0.515829486147 0.744374358501 -0.484394675935 -0.259249543367 -0.388639580025
4.334944222000 -0.126061729037 -0.396827936000 0.759371404933 -0.511706505121 0.743782613645 -0.474990004743 -0.247418121504 -0.380203831517
4.336277333000 -0.118704070868 -0.395703082579 0.755177938268 -0.515788955269 0.735073609551 -0.483318191216 -0.265265618001 -0.379860622732
4.337610444000 -0.120149664777 -0.397041882580 0.757289793414 -0.508853711166 0.736508779385 -0.477820920484 -0.251848796803 -0.376427089148
4.338943555000 -0.119937148648 -0.393420130085 0.755384446485 -0.504900287450 0.733810137227 -0.473768909711 -0.251507947087 -0.374537102046
4.340276666000 -0.121031267470 -0.396649719757 0.757106156041 -0.513314135486 0.740518285678 -0.485751297021 -0.254555615308 -0.385820940977
4.341609777000 -0.124095519711 -0.399674020486 0.756247068468 -0.513595184130 0.735307128795 -0.483413550267 -0.259915619977 -0.382816226734
4.342942888000 -0.126360394015 -0.402087017220 0.747581291705 -0.510977960833 0.731152688699 -0.481925513379 -0.252308677735 -0.380359806588
4.344275999000 -0.118068810051 -0.405045733057 0.755388534183 -0.507533887818 0.738948071426 -0.483608057669 -0.259941671227 -0.383442760481
4.345609111000 -0.119101614620 -0.398151783873 0.759767195209 -0.512514860515 0.736820859964 -0.482753790844 -0.259330144906 -0.389934846150
4.346942222000 -0.123784807082 -0.402724608576 0.752394832318 -0.517930203518 0.731443112054 -0.487323345985 -0.258884574911 -0.383899650525
4.348275333000 -0.131281230528 -0.393728110985 0.751578299876 -0.511817808748 0.735032068291 -0.484843932347 -0.252312459126 -0.394826700014
4.349608444000 -0.132466817597 -0.397087959418 0.758098220593 -0.512263905863 0.731138895225 -0.477380282439 -0.240774222745 -0.386798590101
4.350941555000 -0.138327988224 -0.398118894339 0.756142527219 -0.515314604152 0.738968498947 -0.482259409058 -0.239731688579 -0.401515295206
4.352274666000 -0.134001778460 -0.411104126647 0.758603943176 -0.516635841440 0.736345224951 -0.487658835710 -0.240855532274 -0.388269588201
4.353607777000 -0.129238336502 -0.405859886037 0.748780697866 -0.516498422797 0.729958279790 -0.483524863645 -0.247474735678 -0.384378716242
4.354940888000 -0.125913411489 -0.402063818199 0.748150436462 -0.512195654078 0.730531445554 -0.476156286227 -0.245320816759 -0.384140990713
4.356273999000 -0.130863249345 -0.414180353119 0.752912041458 -0.515043944602 0.730495273974 -0.489976534067 -0.250629954570 -0.385606423938
4.357607111000 -0.135730923170 -0.400974206873 0.746880283990 -0.516642796998 0.729286198334 -0.486702178268 -0.246765409659 -0.394604614664
4.358940222000 -0.138199126721 -0.408457811896 0.744823093375 -0.522531770665 0.726421862701 -0.487872531284 -0.245111277688 -0.385589183658
4.360273333000 -0.134611092842 -0.410348777274 0.752849220658 -0.517847110991 0.730702225729 -0.483050419938 -0.237448604937 -0.386992252001
4.361606444000 -0.126011968917 -0.399374379994 0.738099994863 -0.516518142162 0.723065382791 -0.480027242561 -0.253359050383 -0.389633989115
4.362939555000 -0.123341291983 -0.406663283435 0.744426131403 -0.504220623187 0.720507180888 -0.476203706820 -0.250412123027 -0.383449100312
4.364272666000 -0.130452665377 -0.411048156383 0.741778863241 -0.511131112896 0.726714016837 -0.483708320086 -0.244141192207 -0.388148729109
4.365605777000 -0.128793998655 -0.423070082288 0.744836480341 -0.523642580986 0.728772373224 -0.492298074736 -0.246162719768 -0.392145414781
4.366938888000 -0.128186378066 -0.405094597514 0.744047422252 -0.502819927025 0.729206239231 -0.472302097947 -0.235035425460 -0.394076716785
4.368271999000 -0.126396910887 -0.413602187588 0.748603016130 -0.512064881990 0.724893269498 -0.478045165337 -0.243402992780 -0.382914202433
4.369605111000 -0.124956627730 -0.406513522450 0.743971914489 -0.503003674943 0.726461221542 -0.474838609547 -0.246181967978 -0.387953072656
4.370938222000 -0.126852913885 -0.401080097433 0.732636806350 -0.505471910131 0.716116359620 -0.475211190944 -0.243597921967 -0.387487548090
4.372271333000 -0.121948135645 -0.402934256999 0.743046511077 -0.504405962237 0.724972109659 -0.474084617836 -0.233186530898 -0.390005820995
4.373604444000 -0.127014432369 -0.409297117574 0.744312497942 -0.509249304668 0.725145763990 -0.475681083075 -0.230368409698 -0.389728945745
4.374937555000 -0.131652709217 -0.414576344988 0.736045822570 -0.506446224419 0.721576019946 -0.480026490225 -0.235971110865 -0.387760445557
4.376270666000 -0.134269645606 -0.403141710800 0.734716152417 -0.509807451133 0.713789649852 -0.480863371494 -0.235796301924 -0.394188346621
4.377603777000 -0.123017177459 -0.413360574756 0.742110969206 -0.505390146890 0.719501089502 -0.477194436125 -0.238514242134 -0.387195141758
4.378936888000 -0.125327614249 -0.421212982922 0.743158752538 -0.508017314695 0.724370846361 -0.481091233381 -0.233598586991 -0.390583477020
4.380269999000 -0.134636148840 -0.412121232183 0.737887974004 -0.513590529767 0.715252850898 -0.481748416787 -0.237070317036 -0.392969510913
4.381603111000 -0.128356054819 -0.411498318766 0.734650773369 -0.509818940501 0.715139287323 -0.475660456067 -0.238647221714 -0.392648471244
4.382936222000 -0.128684502898 -0.419588359739 0.735106037220 -0.513766747923 0.718085551462 -0.481183702079 -0.232947106350 -0.393916872676
4.384269333000 -0.132817016202 -0.407288087573 0.726571518369 -0.505252043677 0.709911315483 -0.475596158784 -0.235409560712 -0.392623141021
4.385602444000 -0.127134343884 -0.404195966960 0.723702086245 -0.502504313966 0.707237642888 -0.472003741870 -0.239302218099 -0.394083292878
4.386935555000 -0.124582370652 -0.406876217447 0.729229725721 -0.501205649561 0.711787720205 -0.472479156744 -0.237367741764 -0.394742015283
4.388268666000 -0.123837127586 -0.417465279359 0.732474376603 -0.504575299056 0.714656780152 -0.478764842933 -0.235701273700 -0.395337796302
4.389601777000 -0.126440919101 -0.411436880492 0.725169804216 -0.504926159657 0.712107067964 -0.472735299970 -0.237666272111 -0.392891927572
4.390934888000 -0.131481780041 -0.419182671486 0.731378138252 -0.506483886724 0.711092947874 -0.479527775736 -0.232314086461 -0.393786929594
4.392267999000 -0.122738733177 -0.418758055474 0.733151098161 -0.501818981325 0.712490781639 -0.474755786268 -0.234288271943 -0.390768027596
4.393601111000 -0.124633963542 -0.417116842368 0.727811341053 -0.503573255945 0.709307476442 -0.473648053657 -0.230975012369 -0.394817011677
4.394934222000 -0.128149655419 -0.420670769929 0.730123102147 -0.506467051129 0.709063653191 -0.474581670054 -0.232385162750 -0.395253782930
4.396267333000 -0.125857720067 -0.418546954901 0.726291183817 -0.504903870436 0.707491706164 -0.471138304562 -0.229993911880 -0.397849824120
4.397600444000 -0.131803666435 -0.421495138200 0.728443217801 -0.503916483785 0.705354380263 -0.469028354315 -0.228021618390 -0.395747297583
4.398933555000 -0.126367170384 -0.420793166744 0.722375698870 -0.500961145318 0.705517737115 -0.469174103289 -0.230713633020 -0.396285070667
4.400266666000 -0.123029659070 -0.419531877354 0.725117884634 -0.499147126172 0.706437217089 -0.471497229354 -0.232647658541 -0.397328351369
4.401599777000 -0.126812527265 -0.420179577761 0.723944679765 -0.501297747732 0.704181144806 -0.472056284976 -0.229327050312 -0.395636124083
4.402932888000 -0.132109931294 -0.417973677416 0.718929865070 -0.499083428174 0.699217171541 -0.470608873126 -0.229002632135 -0.399129722394
4.404265999000 -0.122284053643 -0.420487435313 0.725072204287 -0.497027140816 0.705322361645 -0.466963630551 -0.228165963530 -0.398667244629
4.405599111000 -0.121095158267 -0.425980176425 0.721307189089 -0.497698063583 0.703427286217 -0.470879241007 -0.229205475895 -0.395613763666
4.406932222000 -0.126416214609 -0.424492080671 0.719702425077 -0.502358466440 0.701986686216 -0.471879746321 -0.226163667373 -0.401976186597
4.408265333000 -0.121139679955 -0.427930802928 0.722535478901 -0.495063951987 0.702959437289 -0.468807558978 -0.226324694886 -0.396395439526
4.409598444000 -0.127012604509 -0.422482117154 0.715138727061 -0.496154300089 0.697481198572 -0.467220539017 -0.227880593600 -0.399263929322
4.410931555000 -0.119762177399 -0.424656841313 0.719885757448 -0.493043924876 0.699746899469 -0.466456684382 -0.224928624873 -0.398629081891
4.412264666000 -0.122954402995 -0.428808602704 0.720117717519 -0.495536373473 0.698211708954 -0.466694507608 -0.220884456790 -0.398344099589
4.413597777000 -0.124632769860 -0.429322831743 0.719133833659 -0.497380803598 0.696926334102 -0.469918986086 -0.221140614605 -0.402214663186
4.414930888000 -0.123101888634 -0.429127161681 0.716206893287 -0.495627103851 0.699888764329 -0.467136485855 -0.223491898566 -0.400597578557
4.416263999000 -0.124393126829 -0.428726384489 0.711810113309 -0.491381157645 0.692319826374 -0.466949822661 -0.224058463927 -0.398795613709
4.417597111000 -0.120941052287 -0.429969206954 0.714371582528 -0.494535139770 0.696908834090 -0.465517874371 -0.223150262478 -0.405784349494
4.418930222000 -0.121480743296 -0.429457495163 0.712307557309 -0.493052364176 0.695438538327 -0.466885932235 -0.223148768427 -0.401829071892
4.420263333000 -0.121155746327 -0.428010630381 0.712971995220 -0.492723869256 0.695894629792 -0.462810319818 -0.222653107515 -0.407555080386
4.421596444000 -0.123576680668 -0.426330110518 0.711916902062 -0.485259299031 0.691495195229 -0.456212791313 -0.217604369481 -0.403297544373
4.422929555000 -0.115945207542 -0.429477220313 0.714193136992 -0.490836768565 0.698156086245 -0.462467624583 -0.221273295937 -0.412048472680
4.424262666000 -0.122199467764 -0.429255811954 0.712855811452 -0.486552684575 0.694101832576 -0.456147758353 -0.215794452723 -0.408759874128
4.425595777000 -0.123040650179 -0.431741915961 0.709904780828 -0.487803961227 0.690220206060 -0.459628145643 -0.215489799091 -0.405650590206
4.426928888000 -0.115881925985 -0.434629757023 0.719988850806 -0.487237710430 0.698250109764 -0.458505061681 -0.216708139703 -0.413479567336
4.428261999000 -0.118505753445 -0.437147071310 0.710117107520 -0.484009922792 0.689992239700 -0.459617301576 -0.216827152959 -0.404025153482
4.429595111000 -0.115692908743 -0.437500927116 0.709527660385 -0.490380241747 0.696767015300 -0.461482875359 -0.221096182271 -0.411301500892
4.430928222000 -0.115960232683 -0.436477267827 0.712445295473 -0.481749219541 0.695366107791 -0.456496181096 -0.211209636434 -0.407687767922
4.432261333000 -0.115053902321 -0.441444383056 0.708168532531 -0.484446921164 0.690748644896 -0.462039581698 -0.216834429767 -0.407220765798
4.433594444000 -0.114515672686 -0.435349909869 0.711346899216 -0.481523727296 0.693387373378 -0.451561257317 -0.216875996384 -0.413771296733
4.434927555000 -0.116823773433 -0.434273066674 0.706629403665 -0.484691751564 0.691844595528 -0.451206019088 -0.223072631127 -0.414021497801
4.436260666000 -0.116917076058 -0.437758032479 0.707250019557 -0.480315274840 0.687188507782 -0.453203640518 -0.215142762561 -0.410581042546
4.437593777000 -0.114988293388 -0.442842852133 0.705392852315 -0.480750825221 0.687926569471 -0.459040894927 -0.218056405708 -0.413990973342
4.438926888000 -0.115981986787 -0.442037430367 0.704828448505 -0.477955036632 0.688760893197 -0.452295076178 -0.210797068243 -0.412869986232
4.440259999000 -0.116057363782 -0.442585987159 0.702776843369 -0.474778293418 0.684142177399 -0.451760777838 -0.214889913040 -0.410693383893
4.441593111000 -0.113251524584 -0.441293375379 0.702609268726 -0.478990164693 0.691388590875 -0.451909623175 -0.216537887462 -0.420702951431
4.442926222000 -0.115695662019 -0.445850507840 0.704218944933 -0.472191620719 0.683841224991 -0.449233768927 -0.211757616105 -0.413098259845
4.444259333000 -0.112761174324 -0.442457074297 0.705280510934 -0.471346136296 0.685003202157 -0.445676706292 -0.212697185600 -0.416629770307
4.445592444000 -0.113029279943 -0.446864759279 0.704854292643 -0.474172870957 0.684292733835 -0.453930082824 -0.214243953188 -0.421163016578
4.446925555000 -0.114582469563 -0.447497459070 0.699902068533 -0.466296717341 0.678661573080 -0.447437249626 -0.209908780335 -0.408238249948
4.448258666000 -0.113475652445 -0.446530479286 0.699691546884 -0.469918569845 0.680846364699 -0.449676743764 -0.219356918722 -0.415207988797
4.449591777000 -0.111584501351 -0.448819513819 0.706394761620 -0.469419789991 0.683793768850 -0.444332276536 -0.209518010541 -0.424405291140
4.450924888000 -0.111851915854 -0.446069209912 0.703784913930 -0.465807677481 0.683989733467 -0.440044818219 -0.207840711638 -0.421562293483
4.452257999000 -0.110537427920 -0.450458395441 0.698904182252 -0.461875260089 0.679438264102 -0.446678246487 -0.213969639976 -0.415243800775
4.453591111000 -0.112801098506 -0.454056299553 0.702057271845 -0.461904582429 0.682828525171 -0.445631208219 -0.208276181322 -0.419815896325
4.454924222000 -0.110424620413 -0.448620143352 0.699986892565 -0.459986831535 0.683952753457 -0.438331150575 -0.209101708349 -0.422893814784
4.456257333000 -0.107986748850 -0.452908364785 0.701971266741 -0.455512988762 0.678796604108 -0.440243688101 -0.207066813381 -0.418867825045
4.457590444000 -0.103992828506 -0.451784401952 0.700435800038 -0.455088380283 0.686283484836 -0.437415963745 -0.209456696497 -0.424464989737
4.458923555000 -0.106444876174 -0.455139602396 0.697776127372 -0.459291825047 0.684836117967 -0.442708761363 -0.217284485200 -0.423916499142
4.460256666000 -0.108022984651 -0.450482063626 0.699960964849 -0.456541192957 0.685663206616 -0.437177141059 -0.213435092120 -0.431492596909
4.461589777000 -0.113116229726 -0.451329232310 0.692555807670 -0.455955578136 0.679834188832 -0.434952516818 -0.218153992133 -0.427252502954
4.462922888000 -0.108368943351 -0.458786896917 0.698583715439 -0.452953362549 0.683257425487 -0.432765854850 -0.209795453575 -0.429042951380
4.464255999000 -0.110504734946 -0.454203456141 0.695568179918 -0.448455268495 0.678221242683 -0.431042122572 -0.208874614147 -0.424409343641
4.465589111000 -0.107810327983 -0.459098334284 0.699246890626 -0.451852361752 0.684081300664 -0.435678916747 -0.213863085984 -0.434330503045
4.466922222000 -0.106505593057 -0.457041564245 0.699516541187 -0.449112542390 0.683803089606 -0.429366817343 -0.211427795792 -0.435735415202
4.468255333000 -0.107453743969 -0.463140376471 0.696218511885 -0.447722194911 0.680993477155 -0.432969301172 -0.216862048012 -0.431997775742
4.469588444000 -0.109082599543 -0.464980884765 0.696791163713 -0.447793667594 0.680279404952 -0.432330821786 -0.214755478455 -0.434082260676
4.470921555000 -0.110643400595 -0.460183647942 0.695870811483 -0.445494623759 0.682642728279 -0.429487239222 -0.213829771880 -0.437514415564
4.472254666000 -0.108592390897 -0.459437106483 0.693695680629 -0.442256911153 0.678673433763 -0.427684429798 -0.217171472592 -0.434722016307
4.473587777000 -0.107100375127 -0.466309494204 0.698753321392 -0.442732382760 0.683835563752 -0.427350019128 -0.216984782895 -0.442226430797
4.474920888000 -0.103751263595 -0.464723385882 0.699524735895 -0.441846895849 0.685493578919 -0.427100358428 -0.219158536979 -0.439883584891
4.476253999000 -0.105061219722 -0.467340204002 0.697026229382 -0.439963302906 0.682931885491 -0.425474490267 -0.219197081966 -0.439108438537
4.477587111000 -0.108428986200 -0.467679168229 0.693504310808 -0.436312743865 0.681398920717 -0.421603596494 -0.217269524688 -0.440679194515
4.478920222000 -0.114912944554 -0.465473154342 0.692496023179 -0.438983009416 0.677109900382 -0.423257971520 -0.218157886238 -0.442476300951
4.480253333000 -0.108715897876 -0.471184977440 0.695194922705 -0.435492520611 0.680961330079 -0.423570786769 -0.219281198002 -0.444073798767
4.481586444000 -0.100276286151 -0.464789010073 0.694603141620 -0.428994777168 0.682193726660 -0.418011767611 -0.222005533325 -0.439313397418
4.482919555000 -0.115621545980 -0.474666374127 0.695252157883 -0.437921422662 0.679823848806 -0.423075652658 -0.219500207324 -0.448160646537
4.484252666000 -0.105557778985 -0.473736805393 0.696810785401 -0.433975514015 0.682537490133 -0.418184485135 -0.223486298906 -0.444460412779
4.485585777000 -0.114382167610 -0.472549433091 0.693960681198 -0.434720815646 0.683227282586 -0.419519407763 -0.220521235245 -0.452806138271
4.486918888000 -0.105591615635 -0.477144890369 0.700619581009 -0.430039043006 0.684876828792 -0.418494409501 -0.222444940302 -0.449218631987
4.488251999000 -0.112816181745 -0.473105684024 0.697017770654 -0.426210314976 0.680517617503 -0.413868162171 -0.217606262628 -0.448434241176
4.489585111000 -0.104173331821 -0.472702403788 0.697059114407 -0.425176326305 0.684049144134 -0.411131508664 -0.223503721861 -0.448361633287
4.490918222000 -0.103627626074 -0.470836509168 0.697722445605 -0.421816882435 0.685530959908 -0.409608817692 -0.223328772787 -0.452116051208
4.492251333000 -0.105018386192 -0.473641703606 0.697777544049 -0.420964115790 0.684912450165 -0.409753197767 -0.223334411167 -0.451751972760
4.493584444000 -0.113412631989 -0.481754600028 0.697014147506 -0.427675395433 0.684514311010 -0.412409345997 -0.223238226157 -0.456616272447
4.494917555000 -0.106262038626 -0.481181575469 0.699555056384 -0.420581410176 0.685198437269 -0.409582522638 -0.224828686556 -0.452514073952
4.496250666000 -0.106396772520 -0.477182684674 0.696119800560 -0.418928665024 0.683837442197 -0.408492150972 -0.230577296693 -0.453230200721
4.497583777000 -0.105249425172 -0.479597901413 0.697687336026 -0.416239541732 0.684404473326 -0.405045221889 -0.229760758896 -0.451799117495
4.498916888000 -0.108482216275 -0.472291948563 0.696935331118 -0.415271731740 0.683841127636 -0.403059101799 -0.230016131537 -0.456323647322
4.500249999000 -0.108126061878 -0.474875790403 0.696082198118 -0.412796982315 0.685721068069 -0.402679031743 -0.228562797311 -0.458707968260
4.501583111000 -0.106244744995 -0.477338574498 0.700125190963 -0.411098830088 0.685939351267 -0.401182543152 -0.231398262657 -0.457446328562
4.502916222000 -0.103743645631 -0.485722573002 0.705853450960 -0.414556518995 0.689309177286 -0.401799280557 -0.229348176390 -0.457140344121
4.504249333000 -0.107622454212 -0.480356490510 0.704448910750 -0.410674708857 0.686513987354 -0.401719979757 -0.231673384132 -0.458652847904
4.505582444000 -0.104952764073 -0.487156338162 0.704515528766 -0.414947619885 0.689132328927 -0.401596992809 -0.234422129354 -0.461828705856
4.506915555000 -0.103215875863 -0.482495625005 0.703906574844 -0.409208745440 0.689473344532 -0.399015026672 -0.235275297795 -0.460831249331
4.508248666000 -0.104568256236 -0.486870010314 0.708553905317 -0.410270546858 0.691280398080 -0.399542762585 -0.233122925661 -0.460923387435
4.509581777000 -0.108690979622 -0.486401528605 0.706120756058 -0.411055235115 0.689652249259 -0.400048524766 -0.236218736894 -0.463515103496
4.510914888000 -0.112621133833 -0.483451338370 0.703178480526 -0.410088429056 0.688125516898 -0.397561302887 -0.237564265222 -0.464459093373
4.512247999000 -0.112083140878 -0.484097926898 0.705918616225 -0.408269363764 0.689008133259 -0.396322344692 -0.236669152442 -0.464105504691
4.513581111000 -0.104523967129 -0.484198036906 0.706656218585 -0.404887830273 0.691595768968 -0.392931479316 -0.239925399007 -0.465036017555
4.514914222000 -0.108896416573 -0.491650807308 0.709959780154 -0.407741874792 0.692343935280 -0.399118836802 -0.242682613916 -0.465711330330
4.516247333000 -0.103854042866 -0.486051883303 0.709079657055 -0.403944281165 0.692499640473 -0.393328748119 -0.242599685778 -0.465847372372
4.517580444000 -0.110783772944 -0.489613750273 0.711008163861 -0.408693040177 0.693003700270 -0.396014584685 -0.242819743837 -0.469110628148
4.518913555000 -0.106045383152 -0.491642809013 0.710914876245 -0.404154099927 0.694279494495 -0.395601589468 -0.245413091298 -0.466966823299
4.520246666000 -0.106621671490 -0.484206672022 0.708327659902 -0.399755281884 0.693595473843 -0.389216490510 -0.245755745461 -0.469020024073
4.521579777000 -0.115207493522 -0.491773847207 0.710273981558 -0.408652520009 0.693806002904 -0.395147366424 -0.246883035346 -0.468895673419
4.522912888000 -0.118025955698 -0.489630545856 0.709022769329 -0.408435746353 0.692541699311 -0.392243058022 -0.245656998915 -0.469999965915
4.524245999000 -0.106290390035 -0.488010283416 0.710616851920 -0.398769838805 0.695159696932 -0.388034414988 -0.250705961356 -0.468404122232
4.525579111000 -0.110169401268 -0.491737465683 0.715156408974 -0.403535021106 0.698320053029 -0.391841069135 -0.249662396017 -0.473812595188
4.526912222000 -0.112359940144 -0.488175522509 0.714182650279 -0.403432920665 0.696326502823 -0.389370561251 -0.249542279307 -0.474352204221
4.528245333000 -0.107465611809 -0.490179479102 0.716536104341 -0.397380323539 0.699284204516 -0.386727479972 -0.251895637682 -0.472321450713
4.529578444000 -0.112414876838 -0.490574224484 0.715331712312 -0.402488766023 0.699160827590 -0.385152235400 -0.248639383542 -0.475692628250
4.530911555000 -0.110931733545 -0.487063518371 0.714146498260 -0.396969618506 0.696169730300 -0.385115534429 -0.251862781549 -0.472802219586
4.532244666000 -0.108518674312 -0.494468524492 0.718107432277 -0.400153801391 0.701793011172 -0.387912072198 -0.258630508588 -0.476123677546
4.533577777000 -0.115702652311 -0.496913778683 0.716787432055 -0.402138458305 0.696619774258 -0.388591855678 -0.257228264511 -0.471121433618
4.534910888000 -0.111991886583 -0.488450210840 0.714862993066 -0.401405950697 0.699583506429 -0.384467169254 -0.257357777843 -0.475514151567
4.536243999000 -0.110253652608 -0.491776012670 0.723267769385 -0.399424955458 0.705036554898 -0.384425588249 -0.255905523594 -0.480592087771
4.537577111000 -0.115558785596 -0.496232263275 0.721286484612 -0.400468536887 0.701937649814 -0.387474535399 -0.257990391880 -0.475927985326
4.538910222000 -0.110799887018 -0.490560612098 0.717112630796 -0.396049149771 0.702193325049 -0.385424897279 -0.263133971135 -0.477194466065
4.540243333000 -0.119331172771 -0.497705971398 0.718571099138 -0.402879655636 0.698754423938 -0.385939385891 -0.261730222641 -0.476713776308
4.541576444000 -0.116714798541 -0.498204610965 0.720602600696 -0.403383379894 0.697976261642 -0.387555308981 -0.266196232678 -0.474681779177
4.542909555000 -0.119904832604 -0.492379778342 0.718928928507 -0.402399837682 0.700311018539 -0.384279017363 -0.262268469295 -0.479709678347
4.544242666000 -0.118718591276 -0.499721604999 0.720583314409 -0.404065030418 0.701473359699 -0.388553416109 -0.267226956954 -0.475355573442
4.545575777000 -0.118514127371 -0.494813380184 0.720312150564 -0.403611870377 0.701671962648 -0.388401726255 -0.272334101520 -0.481431205254
4.546908888000 -0.116998332768 -0.499748182418 0.721681675217 -0.403474568589 0.699613036514 -0.387081143699 -0.272704814901 -0.473910759962
4.548241999000 -0.118718257353 -0.496721777141 0.719009144731 -0.405173732283 0.700156222902 -0.385429648723 -0.273943739493 -0.477584432939
4.549575111000 -0.120048040601 -0.497841359740 0.720775819605 -0.402994442040 0.702168495285 -0.386332761151 -0.270977142866 -0.479680394276
4.550908222000 -0.121248072276 -0.496614779167 0.721070885506 -0.402478269706 0.703896221048 -0.382575469522 -0.271241295974 -0.477256414111
4.552241333000 -0.120369493011 -0.496280847077 0.721991364897 -0.403680262249 0.705790638356 -0.386957957331 -0.276712452998 -0.479542102122
4.553574444000 -0.123210205037 -0.500579958885 0.721375307550 -0.403798043046 0.702625510435 -0.385240337058 -0.275733656225 -0.477697337345
4.554907555000 -0.123150585216 -0.496949591642 0.724886258160 -0.405493965167 0.707092360953 -0.384661030118 -0.274538771679 -0.488110671096
4.556240666000 -0.125153217921 -0.498274245594 0.721833092327 -0.406669323170 0.703854442576 -0.387896199436 -0.276742616794 -0.481872844168
4.557573777000 -0.123508983788 -0.499031022423 0.725622179700 -0.404119854311 0.709443531736 -0.384074830797 -0.274280142373 -0.485562818952
4.558906888000 -0.124407221199 -0.500297961454 0.724062566811 -0.405377013909 0.706801679730 -0.385096536641 -0.279302828722 -0.482197159412
4.560239999000 -0.127902342737 -0.500430336723 0.722631005384 -0.406288570021 0.704461873723 -0.383905091437 -0.280206941491 -0.484630955805
4.561573111000 -0.126354587028 -0.502244058950 0.722459537550 -0.409383800545 0.705893261053 -0.388814063067 -0.286347145176 -0.483263565176
4.562906222000 -0.127104056404 -0.501230108161 0.723376264686 -0.406828871722 0.708232811754 -0.388724238327 -0.283284242714 -0.482804427708
4.564239333000 -0.129131842997 -0.501872940318 0.722403590288 -0.409953228540 0.704771789458 -0.388335417173 -0.288759902507 -0.482120535814
4.565572444000 -0.128485267669 -0.501551487155 0.723153957173 -0.410070800783 0.707220369367 -0.389917863984 -0.290741971130 -0.484059685812
4.566905555000 -0.127468440119 -0.505767538253 0.721331184302 -0.412460316651 0.704981489312 -0.393247051139 -0.297019525240 -0.481301075955
4.568238666000 -0.129666021077 -0.503408671352 0.723377796076 -0.410854952686 0.706768875137 -0.390091794467 -0.294146603505 -0.485615531589
4.569571777000 -0.132166846851 -0.500750156397 0.722236986981 -0.411635077535 0.707696923260 -0.388832227367 -0.292248409555 -0.485073319113
4.570904888000 -0.132330224354 -0.502078893749 0.720835362202 -0.412689063923 0.706626455552 -0.389544049479 -0.295999362740 -0.484757872426
4.572237999000 -0.134565028933 -0.504679974977 0.721412466096 -0.411716969368 0.706816339289 -0.389537150445 -0.293944043904 -0.484175461427
4.573571111000 -0.132897293030 -0.504591253378 0.723626524827 -0.411884349099 0.705912449839 -0.390353422818 -0.295887647420 -0.487384427073
4.574904222000 -0.134578405276 -0.503787357205 0.722154864513 -0.409229357576 0.706257816876 -0.388987934745 -0.293830701792 -0.482757562809
4.576237333000 -0.136254044103 -0.505279260704 0.721284089267 -0.411780842665 0.705023890705 -0.387743211616 -0.294937519400 -0.482137286602
4.577570444000 -0.137965408091 -0.504367156798 0.720269167266 -0.412615517760 0.705867845980 -0.389106238776 -0.299952973274 -0.484445156253
4.578903555000 -0.137987349183 -0.507042656335 0.726048371400 -0.413805065867 0.709378105304 -0.391251455135 -0.298253426354 -0.485753529085
4.580236666000 -0.139965362235 -0.505988168054 0.721615188760 -0.415894589260 0.703459511042 -0.390529295371 -0.302555372587 -0.486635312800
4.581569777000 -0.137617820937 -0.503660382419 0.723273032761 -0.417142992612 0.708338603193 -0.391734648249 -0.306494558302 -0.492647378431
4.582902888000 -0.141877878906 -0.504624317455 0.717961727323 -0.412067666053 0.706117493765 -0.388833672157 -0.303116782637 -0.478977864351
4.584235999000 -0.139612056428 -0.504271785869 0.722275295755 -0.416878580552 0.708955657609 -0.390784789733 -0.307244220466 -0.492140455730
4.585569111000 -0.142410997932 -0.507108507783 0.719125435537 -0.411102525207 0.704184862142 -0.387934042888 -0.303976467974 -0.479899053958
4.586902222000 -0.145887328916 -0.507155096434 0.721718573834 -0.414642716100 0.706107509596 -0.389831393540 -0.301284497480 -0.483276005503
4.588235333000 -0.141151950488 -0.506326942016 0.720846207364 -0.414697416623 0.706465167538 -0.393891860349 -0.310340037914 -0.489845211842
4.589568444000 -0.142044638830 -0.504294154595 0.719518300196 -0.414703994154 0.704520028794 -0.392007765914 -0.312793255564 -0.491655131410
4.590901555000 -0.150918003372 -0.507915457590 0.722141850644 -0.415753679051 0.705107690775 -0.390180648681 -0.301090949013 -0.486605513000
4.592234666000 -0.145486418797 -0.502829369665 0.721663769817 -0.416665370809 0.710658336769 -0.390095642353 -0.309827354584 -0.494009615443
4.593567777000 -0.149094934760 -0.508341706629 0.719590568301 -0.416664524611 0.707747920706 -0.393292452258 -0.309909102821 -0.486846537316
4.594900888000 -0.148563383912 -0.509735934910 0.716802113488 -0.420255405859 0.703797606360 -0.398888267974 -0.318905484196 -0.486821729365
4.596233999000 -0.150352007621 -0.501526200855 0.716843802250 -0.415299560052 0.706049719801 -0.391878205702 -0.312585305024 -0.487539635899
4.597567111000 -0.147568693846 -0.506233201969 0.714903503551 -0.415440773438 0.701094806392 -0.392426406673 -0.320702561376 -0.483874351583
4.598900222000 -0.148298990013 -0.508700213661 0.716785233271 -0.419175261201 0.705617081003 -0.393925206280 -0.322324711009 -0.485338000167
4.600233333000 -0.148834865439 -0.511551794796 0.721722427013 -0.418931950859 0.708476789074 -0.392945593038 -0.315742765171 -0.487138355573
4.601566444000 -0.151659015830 -0.514027720124 0.717899172285 -0.420201901499 0.706946087222 -0.397162785808 -0.318943489551 -0.486355713531
4.602899555000 -0.150974980103 -0.507396907382 0.717746336575 -0.420791833596 0.703066099946 -0.393309877501 -0.326102544658 -0.487326135460
4.604232666000 -0.153125823710 -0.501352087693 0.711330460542 -0.413560642832 0.701771658238 -0.389457920541 -0.326367092810 -0.483921604119
4.605565777000 -0.157020061245 -0.504620857636 0.713374416763 -0.423701991736 0.702033974063 -0.396558379052 -0.324627340736 -0.493405804977
4.606898888000 -0.153856109985 -0.505905468869 0.718577314599 -0.417183174781 0.708111993694 -0.393493878979 -0.324264573417 -0.488650098285
4.608231999000 -0.151091837022 -0.511841218179 0.722330564759 -0.417513166201 0.704691430454 -0.394192767064 -0.323095417962 -0.487088078034
4.609565111000 -0.158246053849 -0.515005862393 0.718311744847 -0.421525375947 0.704927717524 -0.396877868576 -0.322663188345 -0.486687723879
4.610898222000 -0.157788792478 -0.512088871153 0.713741910944 -0.420603098591 0.701489017995 -0.395398876590 -0.330459079873 -0.485008792320
4.612231333000 -0.166343342356 -0.514351570598 0.718852736781 -0.426363745234 0.702973819013 -0.399572656084 -0.322722629330 -0.489070621881
4.613564444000 -0.158753840635 -0.509368964297 0.713957064695 -0.422200751406 0.702984364254 -0.394949180490 -0.327448423081 -0.490299860726
4.614897555000 -0.168630174743 -0.508805249363 0.709916018669 -0.427125974841 0.702304165664 -0.396351835448 -0.326359379162 -0.493554084144
4.616230666000 -0.161397617301 -0.515421906524 0.719012165570 -0.418311221963 0.701532861160 -0.395307834493 -0.328764392060 -0.484070236692
4.617563777000 -0.174932076136 -0.511367983429 0.714085747969 -0.426531958227 0.695385169722 -0.400042431915 -0.330264021444 -0.485192902359
4.618896888000 -0.171668819127 -0.508205666535 0.708877485885 -0.428019307839 0.697158024503 -0.399402585126 -0.331629991263 -0.491894911355
4.620229999000 -0.173959236602 -0.516495769762 0.713519504744 -0.429312152067 0.699664652290 -0.402331776920 -0.330080995279 -0.492451167195
4.621563111000 -0.161335646973 -0.501545219046 0.708779202063 -0.417280512447 0.695880704773 -0.392121457848 -0.335725975096 -0.486425231763
4.622896222000 -0.162424311831 -0.515485829906 0.714311305655 -0.413541387739 0.702832002705 -0.397046587631 -0.336991942577 -0.486402912910
4.624229333000 -0.168008150399 -0.507617504093 0.712832500116 -0.425129354067 0.698954005360 -0.396763809274 -0.331495838219 -0.491342374402
4.625562444000 -0.172045884637 -0.508260100904 0.710186725838 -0.425611638703 0.697434831701 -0.397067962088 -0.331575277314 -0.490552125511
4.626895555000 -0.174803459975 -0.509973283668 0.705018318374 -0.421408927539 0.695918559536 -0.397096486504 -0.336706700553 -0.484924752312
4.628228666000 -0.175661803188 -0.518526831121 0.713939217406 -0.425932449064 0.700598655392 -0.401204103978 -0.333943265977 -0.488513732254
4.629561777000 -0.173805561089 -0.505764181643 0.706305084288 -0.424270234610 0.695993471290 -0.397213824790 -0.338593221042 -0.489173686654
4.630894888000 -0.181374498112 -0.515661329231 0.708601435948 -0.430967306661 0.696918499518 -0.401907340757 -0.336479985912 -0.490990824719
4.632227999000 -0.192014724180 -0.505036700909 0.703603743204 -0.435389961083 0.691259898092 -0.402150124980 -0.336486764013 -0.495318862959
4.633561111000 -0.171097492668 -0.514826203494 0.708162073523 -0.421580982500 0.698782821035 -0.398732477348 -0.340639012306 -0.485011453058
4.634894222000 -0.177273294569 -0.509484283076 0.707722619508 -0.419320293192 0.694127167434 -0.397240668948 -0.339890856684 -0.482171107671
4.636227333000 -0.183253006538 -0.513719220157 0.709265850057 -0.425852021994 0.697305523892 -0.401135298138 -0.338335467728 -0.489390978691
4.637560444000 -0.185469897428 -0.512409398726 0.707148936727 -0.421323465722 0.692763080415 -0.398548265775 -0.337911334844 -0.482250320887
4.638893555000 -0.180261595152 -0.507627338286 0.702355334648 -0.419523761230 0.693731435298 -0.397021379018 -0.343063522997 -0.482820004515
4.640226666000 -0.178243624719 -0.506223658757 0.705285413270 -0.416797520511 0.695134440488 -0.396233442362 -0.339035145108 -0.487204094283
4.641559777000 -0.189588229162 -0.513021611628 0.707154361620 -0.427874377590 0.693291137484 -0.401249481601 -0.338514584684 -0.488953209800
4.642892888000 -0.197012160413 -0.521894328312 0.704755846957 -0.430879276439 0.692025863087 -0.405110337445 -0.334456226687 -0.481755664183
4.644225999000 -0.190971701395 -0.514746312794 0.702916073295 -0.426218341743 0.692046860114 -0.401331856444 -0.340297435862 -0.488819130079
4.645559111000 -0.187391436523 -0.516637340093 0.703340269979 -0.419586318443 0.695026280759 -0.404369301938 -0.343975833320 -0.486938800863
4.646892222000 -0.192990261862 -0.513033793197 0.697244756854 -0.426731967356 0.692386155026 -0.401006607496 -0.344656671588 -0.490267030508
4.648225333000 -0.187574459187 -0.522822905489 0.702734794447 -0.428772840351 0.694171462661 -0.406298851431 -0.345937808964 -0.486079635078
4.649558444000 -0.184058105585 -0.517283122713 0.698716265330 -0.418537572199 0.696554484700 -0.403897436943 -0.347665341886 -0.491426377128
4.650891555000 -0.199712553340 -0.510002757050 0.695560910801 -0.425542992097 0.686652575673 -0.402379575189 -0.345196149574 -0.483652538695
4.652224666000 -0.188949719305 -0.508156968958 0.696100762449 -0.421917591683 0.691382026802 -0.402663012612 -0.355534703609 -0.491157017178
4.653557777000 -0.198479862851 -0.524242252668 0.696659660964 -0.425458489498 0.689113081089 -0.411202313137 -0.353978878006 -0.485272791969
4.654890888000 -0.193578009183 -0.508607230488 0.697717439796 -0.421646857510 0.691150487169 -0.402304083944 -0.347941728547 -0.490442048337
4.656223999000 -0.189884275718 -0.513334808714 0.697538977976 -0.414808271416 0.693881182805 -0.398791227476 -0.348302993891 -0.482540980324
4.657557111000 -0.189640857165 -0.517141139093 0.699966294565 -0.418987579633 0.690740923677 -0.400209188571 -0.349603715770 -0.480637807968
4.658890222000 -0.201872067668 -0.519582857828 0.700826354089 -0.419242456722 0.687347117129 -0.400218595714 -0.345636134447 -0.474344742193
4.660223333000 -0.193047076593 -0.516696257937 0.708911998537 -0.421427670270 0.697681779775 -0.405290207256 -0.341764144329 -0.493228201376
4.661556444000 -0.206556548019 -0.521697689888 0.699214602662 -0.428336739425 0.686840490793 -0.405158999757 -0.345597677925 -0.482526232150
4.662889555000 -0.194588138438 -0.508907127750 0.697114057638 -0.420329106990 0.686603896007 -0.396130713617 -0.353692660764 -0.480676042410
4.664222666000 -0.222777228573 -0.506793050664 0.689453330148 -0.427623804735 0.676078872367 -0.399215614659 -0.343781299475 -0.487285454245
4.665555777000 -0.206360290661 -0.518171802716 0.697625839001 -0.423127278514 0.682211708587 -0.401644946662 -0.346358801636 -0.479485737077
4.666888888000 -0.197844647964 -0.518483834468 0.696097754695 -0.420548505142 0.688736596044 -0.403817790032 -0.354280604400 -0.482129238500
4.668221999000 -0.197979835585 -0.507385917674 0.684366402925 -0.420523220439 0.684636901096 -0.401841838733 -0.364713150052 -0.482174344907
4.669555111000 -0.211993461968 -0.513058713498 0.688779499154 -0.421901395648 0.678541812926 -0.401253662526 -0.349148852697 -0.478769735750
4.670888222000 -0.204036964153 -0.514245862547 0.699119691926 -0.420651752979 0.689425040775 -0.400160595402 -0.345767761006 -0.484858663898
4.672221333000 -0.200723506370 -0.513966248228 0.697249513914 -0.414463131021 0.688605850348 -0.397014611674 -0.347718007486 -0.483793089050
4.673554444000 -0.210446063106 -0.514759099662 0.692723877020 -0.415258380500 0.687838620131 -0.394684405867 -0.343059444493 -0.480089753385
4.674887555000 -0.202105110091 -0.515406726533 0.696695883932 -0.415766947536 0.685649090355 -0.398273264163 -0.350355899280 -0.479171006247
4.676220666000 -0.211850472767 -0.512022808274 0.689663918494 -0.415435444950 0.679034078070 -0.402978814706 -0.358061538610 -0.478334354004
4.677553777000 -0.213006648004 -0.510116365976 0.694950770532 -0.417243316146 0.688224866554 -0.398312478844 -0.347997732641 -0.485976534910
4.678886888000 -0.205654738408 -0.521330510076 0.699317039100 -0.416128232373 0.689777325423 -0.399399336946 -0.346796626696 -0.483555448795
4.680219999000 -0.208513023032 -0.529033412425 0.693516148002 -0.419876480899 0.686514816212 -0.405375417673 -0.354728339239 -0.475404833112
4.681553111000 -0.213565890761 -0.523080732734 0.691143424261 -0.415597784144 0.683541139399 -0.398517552344 -0.349727386585 -0.470779941357
4.682886222000 -0.213399140694 -0.525114105805 0.693213470411 -0.422320611037 0.684413724923 -0.408423261015 -0.361246395064 -0.481741113507
4.684219333000 -0.214685315709 -0.510727260609 0.682716542432 -0.417731129885 0.680970508557 -0.397904025208 -0.357998419689 -0.483847863548
4.685552444000 -0.222560417921 -0.518664640498 0.690496311871 -0.418172345235 0.680144756264 -0.401811717349 -0.352486311086 -0.475978344202
4.686885555000 -0.213655780505 -0.513637455097 0.694652555360 -0.410125618121 0.687597213563 -0.395391434060 -0.345376634292 -0.477590591406
4.688218666000 -0.214814187565 -0.513195162722 0.689503971482 -0.413540683772 0.678112735355 -0.396864199919 -0.355023394782 -0.476528619126
4.689551777000 -0.221783351862 -0.511099883286 0.687384596578 -0.412697019226 0.676757036606 -0.393975022123 -0.350025474365 -0.469501522784
4.690884888000 -0.224876450161 -0.514929160082 0.682278819500 -0.417807519991 0.670723902087 -0.400368218540 -0.359966734696 -0.469472100693
4.692217999000 -0.225025116127 -0.511067055632 0.684226132476 -0.411744846735 0.674911629162 -0.396284282189 -0.355221984466 -0.474595406233
4.693551111000 -0.220624349799 -0.510053054875 0.682214062736 -0.413002166342 0.674588611988 -0.395019608488 -0.358108234069 -0.473565592435
4.694884222000 -0.211929580069 -0.508291051666 0.690729962845 -0.412480769349 0.688753015167 -0.395585145549 -0.352575279746 -0.488387505223
4.696217333000 -0.212555224313 -0.519595243636 0.699935544372 -0.412827032895 0.686374944725 -0.397052363166 -0.355278790393 -0.482350202439
4.697550444000 -0.215650467040 -0.508437642938 0.686506755556 -0.406895684205 0.680148158638 -0.389211147936 -0.357217483177 -0.473545917654
4.698883555000 -0.224348086048 -0.519351370139 0.690079360954 -0.407805609019 0.680550846878 -0.392983847969 -0.349598777343 -0.471020785273
4.700216666000 -0.220294361525 -0.517485600734 0.690637556405 -0.412305043345 0.682204360263 -0.399638027429 -0.360104156506 -0.481015793425
4.701549777000 -0.218177206778 -0.513531727761 0.694242572406 -0.415826524165 0.684674692548 -0.398636972869 -0.356635681475 -0.486555286447
4.702882888000 -0.232000454407 -0.522280563694 0.692204006008 -0.413202648582 0.682538373680 -0.398869788271 -0.347051176212 -0.479288523370
4.704215999000 -0.224311269887 -0.520829822643 0.690697157627 -0.412464984566 0.681340767850 -0.401009607803 -0.355515427049 -0.477686833172
4.705549111000 -0.230033686050 -0.517983310851 0.686646633235 -0.413447123942 0.678629592687 -0.399713908789 -0.359292816327 -0.478313594810
4.706882222000 -0.227451144348 -0.512450403795 0.684602287469 -0.409673518984 0.679047374256 -0.394566642094 -0.357255162903 -0.478509186200
4.708215333000 -0.220466894460 -0.518518029866 0.694148186098 -0.408767166325 0.689953062198 -0.399900723986 -0.353067164175 -0.486628829738
4.709548444000 -0.219434876407 -0.511937106480 0.689820788375 -0.403024257697 0.687456800697 -0.393046176893 -0.352550522084 -0.477955581765
4.710881555000 -0.223816773320 -0.517240626431 0.691878307243 -0.407438876718 0.683467453756 -0.390552196746 -0.351508961764 -0.476315573606
4.712214666000 -0.222399285734 -0.521796982206 0.691903535742 -0.407827957457 0.689509886247 -0.400721614603 -0.356818560936 -0.481354272492
4.713547777000 -0.234391063974 -0.513443100005 0.681643598974 -0.405122062513 0.674786535440 -0.393844090285 -0.360924867733 -0.470323903999
4.714880888000 -0.225671292010 -0.512857504076 0.694744344985 -0.400990608804 0.688867753891 -0.385307221553 -0.340335384479 -0.481146385786
4.716213999000 -0.226123972801 -0.513870534255 0.696825958943 -0.406380745222 0.695173337509 -0.391506660621 -0.346935218226 -0.491868822815
4.717547111000 -0.233062352556 -0.518351184266 0.685973181086 -0.406191801503 0.677873587979 -0.394598403262 -0.355486535067 -0.474802447276
4.718880222000 -0.232577873272 -0.513671292215 0.690057298466 -0.399651420395 0.680961391064 -0.385163315393 -0.343730733311 -0.472570973682
4.720213333000 -0.227688966978 -0.513676032520 0.687320773123 -0.398815969900 0.682531285343 -0.385262723999 -0.351711986808 -0.472561207519
4.721546444000 -0.232456863083 -0.518797246763 0.689127815326 -0.398982089587 0.681194126392 -0.391141950353 -0.352535565508 -0.470264814771
4.722879555000 -0.230773393869 -0.512571743211 0.686628427182 -0.398965616804 0.679244370050 -0.386333159734 -0.356359467845 -0.473345399919
4.724212666000 -0.233205701230 -0.509810489529 0.686880576437 -0.396545643308 0.680300711354 -0.387615295910 -0.354480560794 -0.471713175301
4.725545777000 -0.234793381463 -0.515115318448 0.688149201016 -0.399328495614 0.680218702961 -0.386561375435 -0.348639755637 -0.474045090647
4.726878888000 -0.236557046244 -0.516289809061 0.685969881360 -0.404229253958 0.677724579407 -0.393163500192 -0.359190213287 -0.478513088721
4.728211999000 -0.239397329387 -0.509303062150 0.687670026651 -0.392768250415 0.679065925778 -0.381155122777 -0.347790557516 -0.466609246760
4.729545111000 -0.238159492477 -0.517372274739 0.686950624521 -0.402645409291 0.679876714896 -0.394199068063 -0.357952236675 -0.479526417166
4.730878222000 -0.242035360799 -0.515043172864 0.686631719875 -0.400453386946 0.678199488152 -0.392420395667 -0.356320758131 -0.478561431551
4.732211333000 -0.238651714267 -0.515488343758 0.685990245778 -0.400168203183 0.678351201644 -0.388333983465 -0.358837809725 -0.474694355630
4.733544444000 -0.237791267722 -0.512602120466 0.689467368422 -0.395951488743 0.686748527577 -0.384441825768 -0.347641818475 -0.477627137050
4.734877555000 -0.239268761853 -0.514899108216 0.689981904555 -0.396188095729 0.683660060617 -0.387755980843 -0.349350115137 -0.477417744194
4.736210666000 -0.238600024362 -0.521176517392 0.688589650492 -0.400132639975 0.678610165795 -0.392227223377 -0.357064398746 -0.476050193559
4.737543777000 -0.238254745485 -0.518145161158 0.689001906723 -0.399209457428 0.682650529396 -0.392799276944 -0.355459677907 -0.479369587977
4.738876888000 -0.243427953811 -0.514916635397 0.685412527864 -0.394310365399 0.674874725538 -0.384320729724 -0.356426417177 -0.469425527999
4.740209999000 -0.241230905312 -0.517545290937 0.688046187654 -0.396283424821 0.678579427559 -0.387295684232 -0.354103986490 -0.475075371511
4.741543111000 -0.242125414815 -0.520569672957 0.689269067690 -0.398051640741 0.678835579142 -0.391640661333 -0.357102072104 -0.474911690543
4.742876222000 -0.240810247166 -0.520035964429 0.687926447349 -0.398506299607 0.679766790981 -0.391619449025 -0.358593601603 -0.476489328364
4.744209333000 -0.243807698104 -0.519109225148 0.686637866228 -0.395517584395 0.676821158093 -0.391248690016 -0.359303936441 -0.473468857037
4.745542444000 -0.239938261822 -0.516893291157 0.693046103764 -0.390997702524 0.685540503809 -0.385005436842 -0.350204173488 -0.474839710285
4.746875555000 -0.240896425202 -0.517317103913 0.689973530287 -0.392482303052 0.681950768362 -0.385531602229 -0.354731695851 -0.472851310343
4.748208666000 -0.246626921892 -0.518443874206 0.688910738515 -0.394538663999 0.678057350418 -0.387862316413 -0.356148868451 -0.473864381593
4.749541777000 -0.244359318770 -0.519020579630 0.691266029754 -0.392300919495 0.678566782590 -0.387312109503 -0.354727356016 -0.472075752485
4.750874888000 -0.241666842141 -0.516293821624 0.689261234173 -0.391887070891 0.681807954566 -0.385934675666 -0.356201756174 -0.473458260948
4.752207999000 -0.243210135007 -0.518473987638 0.688260913564 -0.390766844576 0.678295326105 -0.386223064319 -0.357809429981 -0.473346051067
4.753541111000 -0.239878516583 -0.516318123927 0.691185740513 -0.389410475435 0.682972205915 -0.383525150152 -0.354966874225 -0.471697348980
4.754874222000 -0.244677879581 -0.517104847400 0.691038469465 -0.391055229051 0.679881056545 -0.382861633768 -0.357416104145 -0.470332624022
4.756207333000 -0.243135548988 -0.520545588892 0.691676961160 -0.390350113350 0.683395284499 -0.386018841873 -0.356520507079 -0.471999232100
4.757540444000 -0.242686580621 -0.521757125476 0.693504589903 -0.392314611397 0.683640662259 -0.387110924293 -0.354959066604 -0.474350313499
4.758873555000 -0.244617399281 -0.516876146691 0.690430515885 -0.389356015213 0.681514792575 -0.383113358954 -0.355627328593 -0.470632763771
4.760206666000 -0.244066781063 -0.524225446011 0.695514622937 -0.390378159525 0.686078491111 -0.389188959604 -0.352186735241 -0.471357004223
4.761539777000 -0.244395263857 -0.518101349201 0.692335858415 -0.387087431763 0.684466393550 -0.381846492667 -0.355106630494 -0.470708460030
4.762872888000 -0.241763869782 -0.518894999808 0.694626495571 -0.389256817006 0.683695605439 -0.384198270159 -0.356388758150 -0.472858935358
4.764205999000 -0.240473588241 -0.520420648674 0.694887932439 -0.386756367709 0.688200069289 -0.383909562249 -0.355113191133 -0.471486841035
4.765539111000 -0.246198302097 -0.517032053340 0.690818853003 -0.388517622149 0.683403264584 -0.381672197416 -0.355700271699 -0.470532993119
4.766872222000 -0.240709735092 -0.515451746923 0.692593730270 -0.382923899262 0.684515228384 -0.379885267324 -0.357953029000 -0.470409100290
4.768205333000 -0.247026258606 -0.519985063016 0.698296516694 -0.389391149191 0.684972996032 -0.382868943108 -0.353322962165 -0.471131752428
4.769538444000 -0.238146031132 -0.519673274251 0.694530072975 -0.381712906877 0.687627024310 -0.379965898132 -0.357336709125 -0.466891593354
4.770871555000 -0.241354290895 -0.518342262921 0.696065104540 -0.384161281994 0.687096169902 -0.381068111694 -0.354160597321 -0.471501504359
4.772204666000 -0.246105433282 -0.522007773049 0.698507162842 -0.387917030259 0.686641820530 -0.384387548860 -0.358407186411 -0.472277966418
4.773537777000 -0.243805937013 -0.518639010082 0.695927083541 -0.382295717149 0.685980682822 -0.380627690650 -0.355715790156 -0.467501924073
4.774870888000 -0.236518409254 -0.515033676297 0.699242594731 -0.382473671942 0.690371923412 -0.376985349013 -0.355756020017 -0.470336347455
4.776203999000 -0.242463377511 -0.516162382116 0.697093006704 -0.382049489043 0.688428516321 -0.380566811852 -0.357254916421 -0.468542994951
4.777537111000 -0.242798866387 -0.514721290577 0.695753851381 -0.377599269836 0.686127586171 -0.377844848813 -0.357008555373 -0.462982699781
4.778870222000 -0.240758312887 -0.519840889396 0.703367712830 -0.380337807181 0.687525987799 -0.380481425926 -0.355844458857 -0.469006329857
4.780203333000 -0.246013659153 -0.514946146249 0.699687639826 -0.380854891918 0.684556228977 -0.378771765162 -0.355236859667 -0.468510008896
4.781536444000 -0.245460736511 -0.516607713965 0.705663800889 -0.382005734327 0.689087985678 -0.377600749270 -0.352757189146 -0.470307467625
4.782869555000 -0.235944935631 -0.512235965405 0.700816854297 -0.378581329943 0.692164993973 -0.374657130426 -0.357223506689 -0.468709168514
4.784202666000 -0.243008486114 -0.513632642968 0.699869616208 -0.377568416127 0.689465193379 -0.374734676019 -0.354390786762 -0.467247092594
4.785535777000 -0.240210635450 -0.512715467458 0.697205876614 -0.375211207370 0.688594747939 -0.376294725214 -0.361663694353 -0.464194418762
4.786868888000 -0.237313254657 -0.516531804042 0.701382784762 -0.374105327483 0.691880134731 -0.375211458001 -0.359192372827 -0.462984414591
4.788201999000 -0.239910270487 -0.516689723563 0.705213043669 -0.377878207873 0.693981563718 -0.378013917381 -0.354883205294 -0.470897193737
4.789535111000 -0.241273886446 -0.518442985351 0.703702324360 -0.378726463331 0.693197099871 -0.377990624645 -0.358041258874 -0.468811874192
4.790868222000 -0.244560661072 -0.511459041224 0.704921055798 -0.377395394131 0.689381357263 -0.373815155951 -0.356785523171 -0.466112941461
4.792201333000 -0.234349471667 -0.516446520180 0.710161804451 -0.378574473258 0.697470336138 -0.377883622236 -0.355133334629 -0.472942966748
4.793534444000 -0.238441391170 -0.521901671028 0.711148715901 -0.380749290952 0.694264789539 -0.381021993013 -0.359976607893 -0.473195598884
4.794867555000 -0.236937125872 -0.511928206730 0.708140103652 -0.373970780324 0.695395735040 -0.372343372654 -0.348028083602 -0.467465062004
4.796200666000 -0.247469959586 -0.516737331331 0.705129007851 -0.380605029868 0.688518164137 -0.379263331716 -0.363806440558 -0.468826778522
4.797533777000 -0.239877573138 -0.512506339832 0.707208470282 -0.375659723131 0.692883594953 -0.374622407729 -0.354734207388 -0.463655304723
4.798866888000 -0.240545802741 -0.507369174723 0.708590013497 -0.375938221852 0.692270279327 -0.373866150997 -0.357847585898 -0.467975070893
4.800199999000 -0.238859788696 -0.517470507834 0.714746629783 -0.379466046232 0.697130116141 -0.377499006878 -0.357593633857 -0.466075793522
4.801533111000 -0.244643422245 -0.515284760950 0.709210245364 -0.378216243495 0.691961919552 -0.376675678703 -0.356732056184 -0.466610085177
4.802866222000 -0.242310299096 -0.500368593294 0.702890916733 -0.375606932929 0.686939451547 -0.369075327096 -0.363363907417 -0.461363010154
4.804199333000 -0.236032559379 -0.510748885856 0.711904104728 -0.375671522691 0.696922603669 -0.371636422770 -0.355536684776 -0.466507928544
4.805532444000 -0.241131959777 -0.511597033672 0.710681205863 -0.378544788941 0.694258220163 -0.375959661217 -0.357989095025 -0.470381570062
4.806865555000 -0.244335423181 -0.509294845271 0.709721984289 -0.378576386856 0.692763964191 -0.374288335729 -0.357391747729 -0.467810594544
4.808198666000 -0.233473527010 -0.504998852217 0.709984000964 -0.375823182877 0.694783295127 -0.371788908147 -0.361309394599 -0.464617952236
4.809531777000 -0.242745670091 -0.512651027445 0.714570290851 -0.379468369006 0.696000212639 -0.377386778464 -0.355795570629 -0.468817917916
4.810864888000 -0.241296690888 -0.511504497837 0.712966598156 -0.377556017677 0.695507041986 -0.374662941369 -0.356190246288 -0.464607127922
4.812197999000 -0.240069387429 -0.506799691225 0.713114554609 -0.375406460267 0.695992068841 -0.372296950376 -0.356844129550 -0.465381710204
4.813531111000 -0.233437716242 -0.508053028395 0.716862759911 -0.376120676509 0.698616188040 -0.373470826232 -0.356019448135 -0.466455837952
4.814864222000 -0.235872774882 -0.509133997812 0.719969567897 -0.379779620592 0.700730718951 -0.374898224488 -0.351695931922 -0.471356932791
4.816197333000 -0.240381100435 -0.506232734746 0.714826777984 -0.379304262438 0.697427746016 -0.373663445867 -0.356181985797 -0.470101379897
4.817530444000 -0.236995739304 -0.508286759385 0.717826382029 -0.379094955611 0.700912284883 -0.373257356559 -0.353015838453 -0.469346500429
4.818863555000 -0.237399550775 -0.513109022790 0.717401681198 -0.382381460739 0.698972621332 -0.378590676761 -0.356232181776 -0.471905166859
4.820196666000 -0.248642980819 -0.510148687147 0.715435206379 -0.387328859940 0.696599610076 -0.381518553877 -0.359292222582 -0.476827808987
4.821529777000 -0.236979991245 -0.509149079821 0.716397556618 -0.378800298441 0.701356027644 -0.373737978343 -0.354506003105 -0.468904167584
4.822862888000 -0.238119920178 -0.508180917130 0.715049534290 -0.383602992656 0.696288470806 -0.378509410661 -0.364459838332 -0.471892651021
4.824195999000 -0.244130112485 -0.512354601623 0.717230894408 -0.387929150157 0.696287273681 -0.380254705715 -0.360998674315 -0.469319328231
4.825529111000 -0.239304866944 -0.503518898357 0.713629773231 -0.380830169837 0.696050367949 -0.372071439421 -0.360356319992 -0.465239227600
4.826862222000 -0.235754311671 -0.503764216854 0.720851216716 -0.385347646828 0.703436886711 -0.376697718023 -0.356055888448 -0.476260054682
4.828195333000 -0.233163923527 -0.508137959353 0.718971470846 -0.383689983419 0.697909058717 -0.379068294256 -0.364057699475 -0.469122622885
4.829528444000 -0.234963087083 -0.508325653059 0.718299395390 -0.383069376391 0.702198182456 -0.371524288837 -0.353325241363 -0.462708342704
4.830861555000 -0.236716292448 -0.504163180266 0.715928736256 -0.381765214998 0.700584411226 -0.372920071131 -0.355890428020 -0.465485305418
4.832194666000 -0.238292252050 -0.509915773307 0.716814744535 -0.386267530726 0.698416286466 -0.376914605820 -0.359733397623 -0.466688238689
4.833527777000 -0.238447431973 -0.514132888574 0.716779756682 -0.390685124678 0.699713156411 -0.381577866099 -0.362478494066 -0.473295182444
4.834860888000 -0.239486029231 -0.508682762025 0.716450878474 -0.388513260394 0.700687360640 -0.379330697230 -0.359032882451 -0.473726039022
4.836193999000 -0.236337691348 -0.510735455381 0.721186731891 -0.389406099163 0.706122444019 -0.376097793253 -0.351997020345 -0.471021127463
4.837527111000 -0.234728321578 -0.508404772072 0.719637564319 -0.388506913058 0.704144984845 -0.380592162520 -0.358600274305 -0.475108334861
4.838860222000 -0.236720688616 -0.504518433844 0.717358663435 -0.386227122404 0.703631238818 -0.375529636042 -0.356069917364 -0.470222171511
4.840193333000 -0.237640443655 -0.507295389089 0.716654453546 -0.389396514562 0.700891370880 -0.376886505432 -0.359854135128 -0.469294835822
4.841526444000 -0.240019711777 -0.507542681382 0.714501563224 -0.390823867890 0.696707113219 -0.378771537273 -0.363779510887 -0.469642011257
4.842859555000 -0.234159719908 -0.510244651279 0.717806877528 -0.392282399586 0.700214756127 -0.379783308690 -0.363395058838 -0.470990942476
4.844192666000 -0.236600186800 -0.510339476582 0.715188883957 -0.394192904386 0.700569987431 -0.382938776722 -0.362885612296 -0.474729662323
4.845525777000 -0.233677416741 -0.507080940471 0.716335163196 -0.392102205203 0.702290789324 -0.379165987751 -0.361249418678 -0.471060855206
4.846858888000 -0.233472233703 -0.504916319866 0.718315433132 -0.390455963361 0.701573638056 -0.378807867010 -0.362093882250 -0.471679947204
4.848191999000 -0.235131111176 -0.510297062499 0.716196349056 -0.396158898435 0.701910474882 -0.383085557199 -0.362851540580 -0.475032320443
4.849525111000 -0.232541726390 -0.506985451747 0.716995077209 -0.396090886388 0.700689605528 -0.383803779323 -0.365009563094 -0.475282275475
4.850858222000 -0.236035808942 -0.509777863683 0.715218040652 -0.398355359423 0.698474612525 -0.384695352327 -0.366314258810 -0.476801494019
4.852191333000 -0.237846803631 -0.508314513367 0.713130749589 -0.397751199368 0.699488881359 -0.384339046542 -0.365259082075 -0.475894809394
4.853524444000 -0.237263663280 -0.510939531243 0.713006014442 -0.400688299928 0.700592422221 -0.385512145353 -0.365770871055 -0.476986528777
4.854857555000 -0.238034507433 -0.508467698993 0.711073448499 -0.396213730957 0.697057430141 -0.385687961520 -0.370192562846 -0.475737166825
4.856190666000 -0.235291203491 -0.508795975137 0.713163659841 -0.399179977404 0.700851585634 -0.386950334076 -0.367100428828 -0.478655728641
4.857523777000 -0.236760259663 -0.508887270738 0.710433324791 -0.398914512514 0.698242517463 -0.388284716082 -0.371528895704 -0.477668324229
4.858856888000 -0.236259252593 -0.508253588340 0.712291217841 -0.400177777395 0.698815443249 -0.387315381541 -0.368069916109 -0.478509051021
4.860189999000 -0.236033494813 -0.510488793217 0.710250877811 -0.403968913795 0.699325415141 -0.388303336204 -0.370846664084 -0.478925577653
4.861523111000 -0.234739294594 -0.509772287468 0.709944044702 -0.403102467553 0.697602053782 -0.393005235429 -0.369236344945 -0.480821854138
4.862856222000 -0.237524161398 -0.509601828490 0.712423125233 -0.401490456722 0.695989431215 -0.386874333262 -0.370157866024 -0.477982423926
4.864189333000 -0.238489033007 -0.510969955578 0.710532458360 -0.402372154376 0.693955201227 -0.390599701107 -0.371292521630 -0.480504765086
4.865522444000 -0.234411555039 -0.510418636962 0.711825536562 -0.402529905948 0.699977059319 -0.388191235555 -0.371403209643 -0.481180684111
4.866855555000 -0.237652200455 -0.510368538122 0.704522939386 -0.403307946757 0.694240853473 -0.389830881184 -0.377223134832 -0.479196706075
4.868188666000 -0.238056468154 -0.509474754511 0.712009602774 -0.403729223052 0.696121338156 -0.391365562253 -0.373316080205 -0.481421136071
4.869521777000 -0.239095732433 -0.510655441304 0.707591713972 -0.405640192490 0.695852113307 -0.393243465174 -0.374491284670 -0.484379040832
4.870854888000 -0.238501808642 -0.510448538700 0.700255492309 -0.406839147401 0.693996308646 -0.392164301552 -0.376480376317 -0.478727797553
4.872187999000 -0.237007553008 -0.512133253143 0.702162327043 -0.404890436652 0.693184542731 -0.393209445449 -0.376930317442 -0.482537326052
4.873521111000 -0.239191905050 -0.506778038673 0.705148549775 -0.405031460763 0.690210976976 -0.389536784427 -0.373378781876 -0.477387859635
4.874854222000 -0.237797408409 -0.509191318460 0.705390901081 -0.404765454070 0.691448008720 -0.391559435235 -0.374756332730 -0.482477852442
4.876187333000 -0.238918671700 -0.513817930890 0.703524529905 -0.407051925319 0.691690779458 -0.396139300981 -0.382434749592 -0.479090332174
4.877520444000 -0.238466797276 -0.510691678569 0.702486046889 -0.410741155678 0.694367210520 -0.394686677371 -0.379195386394 -0.484309773725
4.878853555000 -0.239577125755 -0.513383879968 0.699393585136 -0.410976055832 0.690459198782 -0.396087612659 -0.383760078112 -0.483353581297
4.880186666000 -0.238656399125 -0.509655035973 0.700342616408 -0.407496969291 0.691989596306 -0.390882827297 -0.378152433814 -0.483538780740
4.881519777000 -0.240513354699 -0.508159562525 0.700393856149 -0.407388393208 0.689016649076 -0.391363253222 -0.380005591889 -0.483350477102
4.882852888000 -0.242635433499 -0.512204544038 0.697306176097 -0.413252710949 0.689681459095 -0.397963343728 -0.387164616889 -0.485622476851
4.884185999000 -0.241215514918 -0.514547358560 0.695607346282 -0.410644964285 0.687446330193 -0.398841871752 -0.385830823272 -0.481481544973
4.885519111000 -0.240303723448 -0.505064927600 0.695770362745 -0.405129962829 0.685381970949 -0.390958538774 -0.381273177089 -0.479431147660
4.886852222000 -0.242574346909 -0.510731653693 0.698666838800 -0.405176948925 0.689305852779 -0.392994651090 -0.376943105773 -0.486827155013
4.888185333000 -0.240833747082 -0.505053250553 0.691405434906 -0.412731559807 0.684726400959 -0.394880611340 -0.388152293663 -0.484156837015
4.889518444000 -0.238015083990 -0.513088742562 0.697487113763 -0.412466344627 0.691947332311 -0.398979639184 -0.384682270801 -0.490918701943
4.890851555000 -0.237287539983 -0.515947972085 0.698816955050 -0.410973682499 0.690112980283 -0.397845151330 -0.383369863014 -0.485502953085
4.892184666000 -0.252398411042 -0.514452542792 0.687450440085 -0.419847680030 0.680142247742 -0.402121496745 -0.396861433673 -0.487546688955
4.893517777000 -0.243945053186 -0.514763642169 0.694731344653 -0.414693386282 0.683866481136 -0.401087938339 -0.390655126698 -0.484446427019
4.894850888000 -0.245167111877 -0.516370639022 0.693516443757 -0.418109662280 0.685133336632 -0.403736320544 -0.395257750848 -0.491561606327
4.896183999000 -0.244988021258 -0.518077197984 0.691384829071 -0.417166970755 0.684323312946 -0.402705561466 -0.391457253298 -0.489207578982
4.897517111000 -0.249235191045 -0.514115205667 0.685778703450 -0.416554380024 0.680099408568 -0.402452106376 -0.396620974941 -0.488628982300
4.898850222000 -0.254289765700 -0.519876057067 0.692883199821 -0.415950435392 0.682197193269 -0.404592292150 -0.390338731944 -0.489187330207
4.900183333000 -0.250304057962 -0.509550729056 0.686333141172 -0.418574433190 0.679293612779 -0.402023215712 -0.394033781277 -0.493689919586
4.901516444000 -0.242361670980 -0.508220469228 0.688312940163 -0.411605552667 0.680380439472 -0.396262754193 -0.393444905089 -0.490609671225
4.902849555000 -0.251229449450 -0.510931141974 0.684209069718 -0.411793704665 0.676737548064 -0.396772092498 -0.385493299063 -0.479887308756
4.904182666000 -0.248234018353 -0.524188930070 0.687587979880 -0.418681483972 0.680977740584 -0.403644811562 -0.395194301175 -0.489175874183
4.905515777000 -0.250700911363 -0.520188073643 0.684538306188 -0.418233600964 0.679315368233 -0.406866605342 -0.400896000908 -0.496437541745
4.906848888000 -0.250518011873 -0.514590887428 0.679661611155 -0.409315877536 0.678196079961 -0.395210912437 -0.392096059024 -0.482991068004
4.908181999000 -0.245138871899 -0.505609199736 0.682941903151 -0.409108008941 0.674526790996 -0.392882212713 -0.391393117271 -0.485657652072
4.909515111000 -0.249994325220 -0.506368000123 0.687018479745 -0.411344052274 0.679743949814 -0.396177524687 -0.389829044153 -0.498664468422
4.910848222000 -0.243951203790 -0.519421102903 0.685235380269 -0.409027073712 0.677904222131 -0.397926594612 -0.391975836065 -0.482608714963
4.912181333000 -0.250248692473 -0.504084411365 0.677701522548 -0.407233824560 0.671978043820 -0.393050322825 -0.394725874612 -0.487499521981
4.913514444000 -0.250555893919 -0.508805568850 0.675376380386 -0.410593623230 0.672710669276 -0.395597469882 -0.395777658676 -0.486938701408
4.914847555000 -0.245657053167 -0.520010418036 0.684995040712 -0.406077395398 0.678127614000 -0.396942087169 -0.388107799948 -0.478880717602
4.916180666000 -0.258415581008 -0.508820718538 0.666946011977 -0.410289103955 0.666200750812 -0.397608196384 -0.403419287155 -0.479831898117
4.917513777000 -0.260330031928 -0.519342144083 0.669642778173 -0.425639320818 0.663594711455 -0.410467884860 -0.414041271188 -0.498094928710
4.918846888000 -0.264163146176 -0.511244406247 0.669038583241 -0.415267006475 0.660972906708 -0.402246955107 -0.407090483573 -0.487654369179
4.920179999000 -0.265110459045 -0.515033268933 0.666449267621 -0.419285335358 0.661780432391 -0.405319227671 -0.408699169981 -0.487410164278
4.921513111000 -0.258168080047 -0.515696210571 0.669735843784 -0.413050541592 0.665835999475 -0.402262362871 -0.404820168157 -0.487779925638
4.922846222000 -0.259820563830 -0.510376478514 0.670656542085 -0.411431600113 0.665571374988 -0.403289475808 -0.404416188677 -0.491106080065
4.924179333000 -0.263452751480 -0.511910270343 0.655185722884 -0.412301887976 0.651260795918 -0.400406482631 -0.420419752805 -0.471547468826
4.925512444000 -0.262708932361 -0.507816815799 0.662208635853 -0.407167331612 0.656090151523 -0.396615302411 -0.410756373929 -0.474877523198
4.926845555000 -0.271327570116 -0.518064579561 0.671298158556 -0.418528999888 0.664131692993 -0.407709192957 -0.401913261597 -0.495343636384
4.928178666000 -0.266611162269 -0.529065983419 0.670875028696 -0.422514695298 0.662721150670 -0.412166651303 -0.407630183089 -0.489742933817
4.929511777000 -0.265411643838 -0.513277371756 0.659605145893 -0.415636989502 0.654613392444 -0.401218131323 -0.413143449003 -0.482244992919
4.930844888000 -0.258824572745 -0.513971561477 0.665025387924 -0.415024302495 0.660280280701 -0.403359406289 -0.415685664307 -0.492423114183
4.932177999000 -0.277437720371 -0.502359624504 0.652658248198 -0.413326809472 0.648704858326 -0.398418985800 -0.416163166588 -0.483000950668
4.933511111000 -0.263037365886 -0.506877666502 0.659557772114 -0.406947491536 0.657558128401 -0.394271977226 -0.406591728168 -0.477910580727
4.934844222000 -0.262933657480 -0.521054313611 0.658674229844 -0.414604059338 0.655349388475 -0.401795464355 -0.418491814401 -0.479950080113
4.936177333000 -0.267643445789 -0.523080748151 0.662525402555 -0.419391556998 0.659477777263 -0.405903446541 -0.411525470689 -0.491033563312
4.937510444000 -0.257855347808 -0.510471016768 0.659552181227 -0.406782461475 0.659576926586 -0.396434209873 -0.416006328157 -0.484745631270
4.938843555000 -0.266550599172 -0.509238810408 0.657552807348 -0.414458963528 0.655212702205 -0.403740138794 -0.416486814844 -0.493754215764
4.940176666000 -0.269415658019 -0.517071334157 0.654308838678 -0.415142823586 0.649879909932 -0.401563137919 -0.421417058946 -0.482166730885
4.941509777000 -0.266597668292 -0.517163700323 0.654434512686 -0.409650957347 0.652640100228 -0.398039196117 -0.420432608505 -0.477888604685
4.942842888000 -0.270369343962 -0.524405908026 0.653705564374 -0.412830167876 0.648256412642 -0.406523035979 -0.425058985147 -0.482882438619
4.944175999000 -0.265127502314 -0.520784207867 0.655598129480 -0.412975882860 0.651939971722 -0.400229342127 -0.419532090369 -0.481410708149
4.945509111000 -0.275612214500 -0.521652676257 0.649557566781 -0.414465122391 0.648962789517 -0.405509035858 -0.421627276662 -0.482925901635
4.946842222000 -0.265380262230 -0.505909681351 0.647544846304 -0.411223697392 0.646111309752 -0.399028175966 -0.432277484251 -0.487435865980
4.948175333000 -0.276861408119 -0.506295187098 0.647799222176 -0.408901650546 0.648924739750 -0.402159149544 -0.417875756633 -0.489501896382
4.949508444000 -0.277928059082 -0.513009444979 0.646411866661 -0.410008017857 0.646735567943 -0.400630779776 -0.421436566745 -0.484487178370
4.950841555000 -0.271910169773 -0.512224162334 0.649707146584 -0.406404314843 0.648800680367 -0.397971222398 -0.422352149107 -0.481802632706
4.952174666000 -0.284218499496 -0.510419341618 0.643512009139 -0.412588523324 0.639879543936 -0.401182643329 -0.425892819872 -0.485656127638
4.953507777000 -0.269472374740 -0.505725078612 0.644246729666 -0.402799653594 0.646186375815 -0.394137227676 -0.427182501821 -0.479014700682
4.954840888000 -0.275501311783 -0.512625655962 0.647495052024 -0.410035523335 0.645255385221 -0.400444937020 -0.425950187123 -0.483656565387
4.956173999000 -0.276701023962 -0.518178747093 0.646727165591 -0.409381808471 0.645956773628 -0.400694003408 -0.422903126809 -0.481454238075
4.957507111000 -0.282847113134 -0.518343513632 0.643382727742 -0.409371882694 0.642367795455 -0.399159990363 -0.424185375615 -0.478604950284
4.958840222000 -0.278578090043 -0.509824539355 0.641430674594 -0.403752862475 0.642806679609 -0.397320365545 -0.429688360317 -0.477861601532
4.960173333000 -0.276244393897 -0.529240457161 0.643363775126 -0.413633976789 0.640019587216 -0.403561627886 -0.433838925285 -0.476542686777
4.961506444000 -0.281767904002 -0.523272034605 0.640090899325 -0.411176058835 0.641563796864 -0.402033613065 -0.430105803619 -0.480081666584
4.962839555000 -0.277683026393 -0.514577881755 0.640442031556 -0.404079514797 0.637870633008 -0.393125596757 -0.431854206118 -0.472126968787
4.964172666000 -0.277490955975 -0.525453184506 0.645811740835 -0.405534721169 0.644148422527 -0.399644553399 -0.423610789323 -0.472896190722
4.965505777000 -0.295715730119 -0.530551084720 0.633366114879 -0.413122554921 0.638170022106 -0.407218941013 -0.428412475622 -0.478730221454
4.966838888000 -0.274102708997 -0.517073934392 0.642504063708 -0.402244670247 0.640234829839 -0.397049515480 -0.430553712739 -0.473520331163
4.968171999000 -0.289186844000 -0.517467282773 0.633353031130 -0.406017042669 0.632996555373 -0.399427303184 -0.435802736056 -0.475354868925
4.969505111000 -0.286260521726 -0.521203670023 0.638052427003 -0.407449228619 0.637741601387 -0.402190923689 -0.430588750466 -0.478268359082
4.970838222000 -0.283537981280 -0.517708193742 0.636160837858 -0.403592691524 0.635125213322 -0.395496385546 -0.435146282812 -0.472110664045
4.972171333000 -0.290045280891 -0.519494319259 0.630899920274 -0.404217068900 0.632279414420 -0.397126455243 -0.436271273930 -0.472967442572
4.973504444000 -0.291476279329 -0.514876453298 0.630688325757 -0.404362676545 0.631356214521 -0.396636966525 -0.436639560399 -0.476307969527
4.974837555000 -0.297192939303 -0.523234927564 0.629024399550 -0.409989970909 0.630280996397 -0.400472275179 -0.438627658816 -0.478439008040
4.976170666000 -0.290166761989 -0.520938510406 0.631273973734 -0.404536027066 0.633080534999 -0.398850855640 -0.436407540776 -0.474566166486
4.977503777000 -0.281369107962 -0.526807337581 0.635720894421 -0.404245253953 0.638434730261 -0.395349854749 -0.433047079578 -0.470361320314
4.978836888000 -0.301744235225 -0.513958790789 0.621023990904 -0.401164056375 0.623685005811 -0.390995699215 -0.443078899779 -0.468537171450
4.980169999000 -0.285238907481 -0.524978619501 0.634070309253 -0.405569431562 0.637603880780 -0.396972795805 -0.434186369847 -0.471986104620
4.981503111000 -0.287895016231 -0.520877401277 0.630752938795 -0.400767107406 0.636061696278 -0.396917932943 -0.435949756508 -0.470403267691
4.982836222000 -0.292633125955 -0.519828884415 0.627319491795 -0.400630851540 0.630688568435 -0.393224767369 -0.437218166293 -0.469289335394
4.984169333000 -0.292624769000 -0.520265593526 0.627444965854 -0.400432413726 0.629122846451 -0.392374224529 -0.439694382001 -0.468697719238
4.985502444000 -0.297838842479 -0.525290587164 0.624443895243 -0.405399065324 0.627167535467 -0.398883602410 -0.443601440078 -0.472683374581
4.986835555000 -0.289776537666 -0.519200791803 0.626599305833 -0.395401639466 0.627357927291 -0.392147864221 -0.442012360653 -0.464417300191
4.988168666000 -0.296804948760 -0.519601820330 0.623531385458 -0.398069137458 0.625480790703 -0.388922957525 -0.442514493539 -0.465286946525
4.989501777000 -0.301904635215 -0.525214652884 0.621649113670 -0.400338867905 0.624282863608 -0.395857464162 -0.441615037042 -0.467208298262
4.990834888000 -0.300995377279 -0.527435254723 0.622023256616 -0.402351084669 0.626912376473 -0.398047743729 -0.439451866260 -0.470379551588
4.992167999000 -0.294357672120 -0.530599615566 0.627481417884 -0.402283621000 0.629517599237 -0.399197883231 -0.439249892718 -0.469279133996
4.993501111000 -0.296516056466 -0.521072302616 0.622964673432 -0.396412207482 0.629482387157 -0.391213605862 -0.442430277598 -0.465734676487
4.994834222000 -0.299935843991 -0.523776182947 0.622903041031 -0.398328038441 0.628577668197 -0.392379319836 -0.440544472254 -0.469286968523
4.996167333000 -0.300800621959 -0.531482170927 0.623014223493 -0.401610366582 0.627502286496 -0.401385746901 -0.439252914398 -0.470449934649
4.997500444000 -0.297322879397 -0.522008155917 0.622361967528 -0.393267245910 0.627042653328 -0.391970118790 -0.442794217242 -0.461874422104
4.998833555000 -0.300503997152 -0.520342786761 0.621989964467 -0.394049121902 0.624337857125 -0.387730335290 -0.442788548611 -0.465430417106
5.000166666000 -0.308476894211 -0.519888783882 0.614626637003 -0.395895033075 0.622235876476 -0.387028543669 -0.446824183156 -0.468325725461
5.001499777000 -0.304011588497 -0.521546399835 0.618167865789 -0.395593791704 0.623652815076 -0.390518574275 -0.443657452051 -0.467215913289
5.002832888000 -0.296289860638 -0.522888776231 0.620658404638 -0.391978860965 0.627612318829 -0.390600580473 -0.446711416369 -0.461643098656
5.004165999000 -0.304137487426 -0.526406202898 0.619467604208 -0.393373965589 0.622711041832 -0.394561957203 -0.446230595986 -0.465560585779
5.005499111000 -0.304324849841 -0.526590528656 0.617103282412 -0.394428468203 0.625096589803 -0.389132816733 -0.440313539953 -0.461226838148
5.006832222000 -0.304654712923 -0.526832928468 0.620554320061 -0.395945326122 0.624391394756 -0.390556716436 -0.444053768059 -0.466734392884
5.008165333000 -0.309102912064 -0.520949003813 0.618145785073 -0.389522253222 0.621235344076 -0.383230279461 -0.437389537600 -0.464558047345
5.009498444000 -0.307253724983 -0.526276860097 0.614672753356 -0.389701179040 0.619160138553 -0.390014413242 -0.447679540296 -0.458168942075
5.010831555000 -0.305073052740 -0.522820712464 0.613821683335 -0.392131248133 0.623646739641 -0.388523343142 -0.450102094902 -0.462835973279
5.012164666000 -0.306381445370 -0.521638587303 0.615572039810 -0.384726583457 0.621716266241 -0.383554144319 -0.445227817687 -0.455839313961
5.013497777000 -0.309985276167 -0.522321790409 0.614465646953 -0.386733946481 0.619375870072 -0.385474452832 -0.444873630997 -0.459278600399
5.014830888000 -0.308657858847 -0.527050322765 0.614960997861 -0.390329631114 0.621237552095 -0.388829572556 -0.445588643426 -0.464566453726
5.016163999000 -0.310999745218 -0.520980978399 0.615750662732 -0.388817073523 0.618830324775 -0.382168773599 -0.444947972962 -0.460715968524
5.017497111000 -0.310552133137 -0.524724182185 0.617756357557 -0.387307326669 0.623545323700 -0.384285628111 -0.441454367309 -0.459632652966
5.018830222000 -0.309304907903 -0.525845293960 0.615845510995 -0.387996274991 0.623561234089 -0.384235576430 -0.442240127028 -0.462996188033
5.020163333000 -0.311573728296 -0.528926435797 0.618051545862 -0.389722030959 0.620013099841 -0.387309508957 -0.446310105825 -0.461106401027
5.021496444000 -0.314700617952 -0.522602875171 0.616673000610 -0.383801832121 0.618513574956 -0.378970779671 -0.440990877371 -0.455054411028
5.022829555000 -0.312569907378 -0.526863076600 0.614493881975 -0.384466932641 0.620096999502 -0.383516477757 -0.445478812559 -0.460469099591
5.024162666000 -0.310599690372 -0.525499225552 0.610414416718 -0.384304028017 0.619379152730 -0.384399638210 -0.451285949048 -0.456776187623
5.025495777000 -0.313754327185 -0.528484536956 0.615536767628 -0.379631237866 0.617172186667 -0.381952770970 -0.443850702187 -0.453166469558
5.026828888000 -0.313900073100 -0.528750445646 0.611858106742 -0.386551753433 0.618450972924 -0.387970199049 -0.453266730167 -0.463385965568
5.028161999000 -0.313241445904 -0.523447151439 0.611824196622 -0.381078894034 0.617529635661 -0.381427933980 -0.449454314672 -0.455850418206
5.029495111000 -0.317509806351 -0.521160930446 0.613476072522 -0.382843037583 0.617559815885 -0.378624604706 -0.447450505194 -0.458355712178
5.030828222000 -0.316197264425 -0.524879023197 0.613269358936 -0.376872750414 0.615995182947 -0.379937291220 -0.441961875143 -0.448592581910
5.032161333000 -0.317412919644 -0.522940406766 0.615696989532 -0.380237438449 0.620760196057 -0.378584929401 -0.440205498923 -0.459379004316
5.033494444000 -0.315915226181 -0.524775051407 0.618607068101 -0.379430745394 0.621939593512 -0.378570112236 -0.440242060047 -0.462381585647
5.034827555000 -0.315423305668 -0.528380406922 0.617255030928 -0.380154499912 0.622555861507 -0.381662727286 -0.442802750074 -0.460048478238
5.036160666000 -0.312254536542 -0.526856265377 0.615491148045 -0.381064895218 0.622637044929 -0.380914484269 -0.448592280993 -0.458869917911
5.037493777000 -0.318510624945 -0.523875057979 0.611212733221 -0.375259932801 0.616028788044 -0.377056438191 -0.448897984517 -0.450974388928
5.038826888000 -0.317280585111 -0.525001402457 0.613877329599 -0.377828234806 0.619142991937 -0.378360534817 -0.446179543821 -0.454652335369
5.040159999000 -0.314667928057 -0.525025448862 0.620501530119 -0.375415399350 0.622483904662 -0.374730426108 -0.437305314933 -0.458760353745
5.041493111000 -0.315908248660 -0.526011644206 0.616468924420 -0.370348598129 0.621142502409 -0.372762187283 -0.438049549693 -0.447817141757
5.042826222000 -0.327149133077 -0.524618337704 0.608715885102 -0.375719004176 0.613599614915 -0.377587942690 -0.450436245257 -0.453602160981
5.044159333000 -0.316579343964 -0.523507338077 0.613662615584 -0.374241063161 0.619880863320 -0.376332116899 -0.447566431226 -0.456613557888
5.045492444000 -0.320041788239 -0.524564780035 0.616299954428 -0.371740337149 0.619587810702 -0.372939839404 -0.440364845081 -0.452901071607
5.046825555000 -0.320985650592 -0.523431461137 0.617670851373 -0.365701067750 0.618613538511 -0.372295981126 -0.435777750187 -0.447670914910
5.048158666000 -0.318672125231 -0.526583886267 0.615755154140 -0.370243128668 0.619075623793 -0.374135948178 -0.443559181593 -0.449536295824
5.049491777000 -0.323509137902 -0.531019073703 0.617727627772 -0.372663819977 0.618790929820 -0.374901570971 -0.440366156733 -0.452455735492
5.050824888000 -0.324824478948 -0.525113570798 0.615885896374 -0.368180023960 0.616684409201 -0.372136112959 -0.440239756182 -0.449612655338
5.052157999000 -0.316346883881 -0.527621264272 0.621295309457 -0.368012239000 0.623340502500 -0.375318935022 -0.441104190388 -0.453525753632
5.053491111000 -0.322901292100 -0.527406601680 0.617547640100 -0.367670493082 0.616482199626 -0.372865125686 -0.440319534691 -0.448375346725
5.054824222000 -0.320456523747 -0.526618942735 0.617415311534 -0.369516893236 0.619249014858 -0.373805424586 -0.445038956922 -0.451517844054
5.056157333000 -0.319153867242 -0.519767496223 0.617331599600 -0.364962638752 0.620011911873 -0.368237491189 -0.442698625599 -0.450047138527
5.057490444000 -0.323191718494 -0.526543261374 0.615033215780 -0.370577511104 0.621193139015 -0.374022301716 -0.447456705340 -0.455773277692
5.058823555000 -0.321990000622 -0.522160699592 0.612728683439 -0.365222517692 0.618376908467 -0.369965222898 -0.450613672694 -0.449308517731
5.060156666000 -0.326573671335 -0.522462132993 0.616612409884 -0.364889705647 0.617478413115 -0.368627456747 -0.443740678444 -0.450335928614
5.061489777000 -0.325448371971 -0.524805599030 0.620766322508 -0.366268966693 0.619770117522 -0.370886674466 -0.437752347548 -0.453081357663
5.062822888000 -0.323434654222 -0.526896356792 0.618218831406 -0.365000946113 0.619243363374 -0.371166603368 -0.445675687437 -0.450491295983
5.064155999000 -0.324444385897 -0.517610758450 0.615779318793 -0.363044824744 0.618210340112 -0.369214051589 -0.445701904645 -0.453452733279
5.065489111000 -0.326141017820 -0.524633509941 0.616489517029 -0.364751802316 0.617481366646 -0.369359672345 -0.445591894244 -0.449599479473
5.066822222000 -0.322596307685 -0.523253719122 0.620713307563 -0.362681170645 0.620680604027 -0.368380088874 -0.442197266563 -0.450017823652
5.068155333000 -0.331944539405 -0.519356937918 0.616925076640 -0.364340323366 0.616704460627 -0.367785198814 -0.444354992897 -0.452953747068
5.069488444000 -0.327411028907 -0.519090084979 0.619751721928 -0.364024599455 0.619964037190 -0.367667499490 -0.442468797715 -0.456768833574
5.070821555000 -0.325864171239 -0.525133554839 0.622664060276 -0.365772403287 0.621826375164 -0.369807974439 -0.439555154620 -0.456761873301
5.072154666000 -0.321211708922 -0.527669048350 0.625689903523 -0.366101145999 0.626118513515 -0.371405141343 -0.438222052976 -0.457557266530
5.073487777000 -0.331935985087 -0.517911527070 0.616674609570 -0.362006461498 0.616641879679 -0.367297863244 -0.445914433109 -0.455348150809
5.074820888000 -0.334018674720 -0.519809860920 0.618945642861 -0.361586361927 0.616999549206 -0.365546232907 -0.441594073574 -0.451254003804
5.076153999000 -0.321696185247 -0.526116704030 0.627783018277 -0.361887901150 0.624709306820 -0.366824521950 -0.436747245803 -0.451544079918
5.077487111000 -0.325787009221 -0.526302097600 0.625061322030 -0.362404241779 0.622966000874 -0.368690753988 -0.440758469740 -0.453436271070
5.078820222000 -0.325227797679 -0.519038350285 0.626504235636 -0.362059676863 0.624998179086 -0.364747004968 -0.436040871623 -0.456201454531
5.080153333000 -0.325989329672 -0.517769069197 0.624704927340 -0.358810009308 0.622506848458 -0.362967764809 -0.439647259620 -0.453019087266
5.081486444000 -0.328411968242 -0.512290907968 0.622993946158 -0.354772000684 0.620287572145 -0.358635108303 -0.439635036163 -0.449168530695
5.082819555000 -0.327675120522 -0.518000015267 0.626888987082 -0.359381457215 0.624450252428 -0.363918286263 -0.436515258062 -0.455324011803
5.084152666000 -0.316351299909 -0.520704940163 0.634208987516 -0.359147753414 0.630092850704 -0.363447233828 -0.434513885859 -0.455272179761
5.085485777000 -0.325684319314 -0.516077947346 0.629576619171 -0.358342740196 0.624411791318 -0.360819918663 -0.436365440378 -0.452908537658
5.086818888000 -0.323792212680 -0.510550738215 0.627211539039 -0.353819989361 0.624919637466 -0.359064220404 -0.438600311809 -0.452861149295
5.088151999000 -0.318753737621 -0.513987308320 0.632251826303 -0.354225153464 0.628525213204 -0.358941420981 -0.435333719330 -0.452170564465
5.089485111000 -0.323372397419 -0.517631627522 0.632715066013 -0.356632158480 0.627290849674 -0.360719185345 -0.434601278211 -0.453204258599
5.090818222000 -0.327561219721 -0.519780694606 0.632947622099 -0.360925269411 0.625851224621 -0.362615310392 -0.433835092673 -0.455917782324
5.092151333000 -0.323551307527 -0.519448638795 0.635052959694 -0.359863067015 0.629040311495 -0.362358845055 -0.433306052307 -0.455820828559
5.093484444000 -0.317866342533 -0.520220559169 0.639734632607 -0.358976146495 0.634970437439 -0.361022351084 -0.429548421828 -0.456418278389
5.094817555000 -0.318318563074 -0.513562016546 0.637930596101 -0.354947329931 0.633634359292 -0.357597917336 -0.430154146116 -0.454148631419
5.096150666000 -0.319011114232 -0.511391664749 0.637531098315 -0.354201336934 0.633334155032 -0.356953743957 -0.430940599893 -0.454565604064
5.097483777000 -0.321678262141 -0.517206498358 0.636978226737 -0.359956510835 0.632408381808 -0.361879068797 -0.431911922474 -0.458230941760
5.098816888000 -0.327591159010 -0.511936248136 0.634075171197 -0.359352554972 0.628458753708 -0.357709669672 -0.433056697592 -0.457958405777
5.100149999000 -0.318467869901 -0.512247218898 0.637764949690 -0.356511800374 0.634790457601 -0.356725355346 -0.430744889108 -0.456594977829
5.101483111000 -0.322408217203 -0.512830528831 0.639730649984 -0.358189657524 0.632327093104 -0.357363232938 -0.429515704169 -0.457322203507
5.102816222000 -0.321641774002 -0.513631170588 0.639326857871 -0.358913308956 0.634609335006 -0.358943800382 -0.431003175357 -0.457557333106
5.104149333000 -0.323712639345 -0.513893414483 0.638758976202 -0.360890636756 0.633650220718 -0.360826999712 -0.429216506208 -0.460092049879
5.105482444000 -0.323632733315 -0.510811992868 0.636397276221 -0.361429087572 0.634814976111 -0.361658051973 -0.433051266389 -0.463377608886
5.106815555000 -0.320110047437 -0.510911606360 0.640920187705 -0.357720900440 0.636056501308 -0.359913696403 -0.429994955538 -0.458976388519
5.108148666000 -0.316416693580 -0.517744038724 0.647514308527 -0.362390453236 0.640550025578 -0.362283275209 -0.426183442241 -0.461520907493
5.109481777000 -0.322902657418 -0.510561719228 0.641714693108 -0.360257656097 0.634891504477 -0.358111308575 -0.426394769594 -0.458873555505
5.110814888000 -0.321357947250 -0.506877400994 0.641679320197 -0.359922831738 0.638533191037 -0.357367751278 -0.426509947746 -0.464436063637
5.112147999000 -0.319186131786 -0.510418738915 0.643540499417 -0.362045309201 0.639822152644 -0.359260385623 -0.427091633485 -0.464078802503
5.113481111000 -0.316989558197 -0.512734461829 0.649614935468 -0.361485422700 0.639703275041 -0.357705376139 -0.420846098247 -0.460904514072
5.114814222000 -0.313383990517 -0.513093746350 0.649628259568 -0.362884623630 0.644757770665 -0.362942470078 -0.424850084018 -0.466296075703
5.116147333000 -0.317192151609 -0.510825906712 0.649184097508 -0.364755732831 0.644050234602 -0.359516917970 -0.421573688322 -0.468755158579
5.117480444000 -0.316499449182 -0.512060264715 0.648827056781 -0.363951400621 0.643265656506 -0.360084248204 -0.422310058405 -0.465706326235
5.118813555000 -0.315384376625 -0.513619987529 0.649923805652 -0.364546481322 0.643477107377 -0.360983491820 -0.422509189952 -0.464131603165
5.120146666000 -0.313939682492 -0.512865322982 0.652224760376 -0.365713825177 0.643977117376 -0.359111762975 -0.421111165518 -0.465328963601
5.121479777000 -0.318852246855 -0.513661132164 0.648132007085 -0.366361714522 0.641126691602 -0.362270984520 -0.423573569056 -0.465277764036
5.122812888000 -0.318140491909 -0.509409194863 0.646915405972 -0.367823305505 0.643901636913 -0.362878941450 -0.426113058914 -0.469670200830
5.124145999000 -0.315686292865 -0.511733352974 0.648897257336 -0.368453883824 0.644026374196 -0.363321866913 -0.424548379744 -0.469556228396
5.125479111000 -0.312752179220 -0.511133921334 0.652424001526 -0.366953956420 0.646475484496 -0.362577404334 -0.420742063162 -0.470602343933
5.126812222000 -0.312231202820 -0.511478557219 0.650432321235 -0.366851764684 0.644669676119 -0.364698799366 -0.425316572106 -0.468559051396
5.128145333000 -0.313545086047 -0.514232154780 0.651168656723 -0.372090525001 0.645929648226 -0.367967635607 -0.425466040947 -0.475002518527
5.129478444000 -0.316780784494 -0.514856769457 0.649823496001 -0.372742529064 0.643444295911 -0.366825694875 -0.425603775028 -0.471544458753
5.130811555000 -0.316474608181 -0.514527460163 0.650587501629 -0.373928316352 0.643151229115 -0.367485092635 -0.425550607866 -0.472913880585
5.132144666000 -0.313112421008 -0.514831775504 0.651796974369 -0.375160000279 0.646437308690 -0.369776718255 -0.427625528646 -0.476592434028
5.133477777000 -0.315884431424 -0.512874163688 0.648502826913 -0.374001168518 0.642834159857 -0.368757088370 -0.429440908766 -0.473892367825
5.134810888000 -0.315352058527 -0.514347999241 0.652254528742 -0.374034136275 0.643799896828 -0.366325965035 -0.421296943893 -0.472068137306
5.136143999000 -0.314544076779 -0.517128632812 0.651365437133 -0.377190236351 0.645131848944 -0.372007105700 -0.424735817995 -0.476092575796
5.137477111000 -0.313692719461 -0.517089100837 0.653289853601 -0.380133503576 0.648795896136 -0.371786842058 -0.423123173947 -0.480355608746
5.138810222000 -0.313711719869 -0.515207916392 0.653214825048 -0.378176389892 0.647918136151 -0.371261320470 -0.421122013242 -0.480396466631
5.140143333000 -0.315005855833 -0.514082039937 0.651535930495 -0.378463520309 0.647893650558 -0.369640779047 -0.421432245946 -0.478583343325
5.141476444000 -0.315012662008 -0.515128398129 0.650713541231 -0.380441409029 0.647602682400 -0.372635953205 -0.424106714983 -0.482411441913
5.142809555000 -0.312161473226 -0.521261711772 0.651992201636 -0.384497975073 0.650035475274 -0.378734189632 -0.425920649476 -0.485112552084
5.144142666000 -0.315981888382 -0.513410196132 0.650581328558 -0.380335569307 0.647698985041 -0.369955910434 -0.418446671331 -0.479619810905
5.145475777000 -0.314218629655 -0.514292983255 0.648796548378 -0.382681144522 0.648845239574 -0.375796845981 -0.425836322756 -0.486896208081
5.146808888000 -0.315168534832 -0.519700383085 0.650799218011 -0.387858800788 0.648197843606 -0.380276554914 -0.426589477330 -0.489457016145
5.148141999000 -0.315992660638 -0.517832061164 0.649087784772 -0.385614682079 0.644930796067 -0.378790382896 -0.427369656362 -0.486944281570
5.149475111000 -0.316590852900 -0.518798426745 0.646881826748 -0.387792162077 0.644246693143 -0.381406183332 -0.430131738880 -0.489489200449
5.150808222000 -0.314826310935 -0.518086716274 0.647538886911 -0.386277512838 0.645746104471 -0.380269422109 -0.428086219468 -0.489744639527
5.152141333000 -0.317182664750 -0.521118230358 0.644999551045 -0.389134920789 0.641242924915 -0.384921599859 -0.433608530195 -0.488966261682
5.153474444000 -0.315141123878 -0.513709773703 0.646348006420 -0.383066303843 0.646019076893 -0.376511857868 -0.424258505397 -0.485600308795
5.154807555000 -0.320150372861 -0.518176819182 0.644224354621 -0.389650013885 0.641627617005 -0.381620642026 -0.428871031661 -0.488536722859
5.156140666000 -0.318640196241 -0.519177902951 0.643575332906 -0.389537614411 0.641945179330 -0.383552016281 -0.433362908660 -0.490651706949
5.157473777000 -0.321158160467 -0.519063168262 0.640592208427 -0.391527069737 0.640473957833 -0.384565998348 -0.433353287008 -0.491234943113
5.158806888000 -0.317868760484 -0.516473384119 0.644347970289 -0.391375884781 0.645193745133 -0.383526397701 -0.428021366959 -0.495600703316
5.160139999000 -0.316610358803 -0.523156134032 0.645064112059 -0.393828796555 0.645414693987 -0.387418969941 -0.431170170179 -0.493106224022
5.161473111000 -0.320321815375 -0.523753987408 0.641101222097 -0.395566248769 0.639501937670 -0.391302419199 -0.436009387017 -0.494873783843
5.162806222000 -0.319628651101 -0.518846916233 0.640762504741 -0.393351094564 0.642209652467 -0.386642530343 -0.430591349414 -0.495653816928
5.164139333000 -0.323885756487 -0.522532207366 0.638225872303 -0.396889156474 0.637428434336 -0.390680610129 -0.436591634159 -0.496452890069
5.165472444000 -0.325480905011 -0.519835597698 0.636791860659 -0.397671023233 0.638824271262 -0.388801831687 -0.433470654385 -0.498771470046
5.166805555000 -0.326552838671 -0.518857250550 0.634718116682 -0.397539127410 0.637505611684 -0.390773182681 -0.435165865207 -0.500465120041
5.168138666000 -0.329417568236 -0.519991943349 0.632687068423 -0.398878591638 0.633384665206 -0.392106826849 -0.439638413640 -0.498695688496
5.169471777000 -0.327604714870 -0.523211287144 0.633028456568 -0.400860357307 0.634238891810 -0.394146158504 -0.440127275943 -0.501407130563
5.170804888000 -0.328714885629 -0.520509678204 0.631012134507 -0.400089528512 0.633371857547 -0.394452294187 -0.439526565865 -0.501833377600
5.172137999000 -0.325232624274 -0.521417576553 0.632447917885 -0.396365578283 0.633830478677 -0.393681864048 -0.439176939860 -0.499484823367
5.173471111000 -0.329848474679 -0.520901478523 0.632275003458 -0.398592709311 0.632852972525 -0.393901213889 -0.438203517682 -0.499916696350
5.174804222000 -0.334405928307 -0.527905319855 0.633612933100 -0.404639242332 0.631045190275 -0.397118254888 -0.437936307553 -0.503041301452
5.176137333000 -0.333471586820 -0.523682401203 0.628543112687 -0.402095980250 0.630464710259 -0.396978873374 -0.440171001897 -0.503270848604
5.177470444000 -0.332964378327 -0.522268262095 0.626444464152 -0.402268248777 0.629834705177 -0.398312178961 -0.443174216446 -0.504921229668
5.178803555000 -0.334847379583 -0.519611855860 0.625573924757 -0.402650381963 0.628729407228 -0.396452347873 -0.441912342362 -0.505149682973
5.180136666000 -0.336751009775 -0.519877484271 0.623651258283 -0.402273889249 0.626649733332 -0.396453701379 -0.443981659082 -0.504463833754
5.181469777000 -0.338653548428 -0.519852720560 0.622369499516 -0.400942798790 0.624228829090 -0.395390620879 -0.444459714293 -0.503158109127
5.182802888000 -0.339836765586 -0.519774217652 0.619822211212 -0.402349589753 0.622180254470 -0.397094547935 -0.446527170338 -0.503579048334
5.184135999000 -0.343107130488 -0.526418513557 0.621922219744 -0.407674503565 0.623718322208 -0.400222508829 -0.444373160245 -0.506366539554
5.185469111000 -0.347764226373 -0.523695672308 0.618005796290 -0.408370369551 0.619043339807 -0.400777964768 -0.446025571901 -0.508464565619
5.186802222000 -0.339411509465 -0.527171608022 0.622578204790 -0.405805790982 0.623169618181 -0.400971992478 -0.445406027099 -0.505018474670
5.188135333000 -0.348448424267 -0.523572186338 0.615963132133 -0.406486282116 0.617333510521 -0.401665104303 -0.448003000814 -0.507313333887
5.189468444000 -0.346693141020 -0.518919140597 0.612635817009 -0.403243076020 0.617300971205 -0.400987068375 -0.451069082340 -0.506789301171
5.190801555000 -0.343835155349 -0.526555438120 0.617193200434 -0.406201683108 0.619794988670 -0.402862135554 -0.448299861158 -0.508637999882
5.192134666000 -0.346523910286 -0.528703250552 0.618854916162 -0.407646434139 0.618278978019 -0.403920808313 -0.448249242305 -0.508275790622
5.193467777000 -0.349212192036 -0.527447594388 0.612140041399 -0.407406815486 0.616070190139 -0.403948131961 -0.452113879723 -0.508869012196
5.194800888000 -0.348194746434 -0.522877397847 0.612481225186 -0.404064910703 0.617125119054 -0.402618489872 -0.449600935217 -0.508230707438
5.196133999000 -0.354716195599 -0.529337335713 0.609705550133 -0.410046652608 0.610613461509 -0.406106606531 -0.453904377543 -0.509143184215
5.197467111000 -0.348411092215 -0.521195244249 0.608560596941 -0.400476771171 0.614680252661 -0.399659573101 -0.453275237866 -0.504363681638
5.198800222000 -0.355069193822 -0.519120778398 0.605824588234 -0.401933199103 0.610698503762 -0.399515776162 -0.450962961999 -0.505311128124
5.200133333000 -0.361422442073 -0.525215421620 0.604310061432 -0.409475229742 0.607030140960 -0.407911821335 -0.456083455625 -0.510734502903
5.201466444000 -0.361037090012 -0.518672047738 0.602222596959 -0.404735782046 0.604880694309 -0.400299164110 -0.456661540554 -0.506499353325
5.202799555000 -0.361466966062 -0.525912292700 0.601966418036 -0.409072424558 0.605625031562 -0.406840278574 -0.456970653981 -0.512320989310
5.204132666000 -0.357891777222 -0.518584257594 0.599094307525 -0.402003355279 0.605011161610 -0.400583159576 -0.457555572069 -0.506077994103
5.205465777000 -0.359308492274 -0.519974152950 0.600511933686 -0.404609360333 0.606019872713 -0.402104585754 -0.459409263997 -0.510110373691
5.206798888000 -0.359581086968 -0.527999737728 0.601181652690 -0.405685574609 0.603766353967 -0.404565515696 -0.457555270453 -0.507004018889
5.208131999000 -0.369619681176 -0.523027676712 0.594677430642 -0.404540131828 0.597525593710 -0.403698474950 -0.459875366356 -0.506707072874
5.209465111000 -0.370003007025 -0.518247495285 0.592336908992 -0.403747561683 0.600009306096 -0.403262619997 -0.460675459975 -0.511398814661
5.210798222000 -0.368905001714 -0.526373762062 0.598493599847 -0.405057742190 0.599051945289 -0.406199101957 -0.460570396125 -0.509273997469
5.212131333000 -0.371661674593 -0.520315595104 0.590740799797 -0.405421030008 0.597461155190 -0.405538132504 -0.466008388951 -0.512857287428
5.213464444000 -0.376955485935 -0.514746812423 0.584628775398 -0.404211825820 0.592253554231 -0.401407522420 -0.467527339817 -0.511528252184
5.214797555000 -0.375892934110 -0.520544860270 0.587090221000 -0.405960583134 0.593492032082 -0.404495203535 -0.465765855580 -0.513626196714
5.216130666000 -0.378209780522 -0.526460791292 0.588804249836 -0.405994629258 0.591385098685 -0.407841401102 -0.467191704144 -0.510177569556
5.217463777000 -0.374330157847 -0.524981225167 0.589758590340 -0.409039810155 0.596032476343 -0.407721114135 -0.465561249701 -0.517067414483
5.218796888000 -0.379142140052 -0.517809392708 0.583112880821 -0.400286427404 0.588103737416 -0.400485602416 -0.466891823282 -0.507970000780
5.220129999000 -0.382860537117 -0.532750405910 0.588823022679 -0.410343745367 0.593378561478 -0.406333153089 -0.457979756893 -0.513560496766
5.221463111000 -0.383995658392 -0.532974057741 0.585671416015 -0.411332544925 0.586400678693 -0.409999553230 -0.467406543698 -0.513416217068
5.222796222000 -0.379053112340 -0.523230040605 0.584837894988 -0.405921940675 0.592331842275 -0.407640146481 -0.469126727588 -0.516855773802
5.224129333000 -0.376101614053 -0.520327150667 0.583544523253 -0.400972377644 0.592151718207 -0.401314415541 -0.467690268676 -0.510903107335
5.225462444000 -0.388496201940 -0.524275684821 0.577394791038 -0.406880208480 0.585165211654 -0.405887231413 -0.472871830017 -0.514350643770
5.226795555000 -0.374323621220 -0.522527690798 0.585180464685 -0.402042875610 0.593738174155 -0.406266474853 -0.470113432987 -0.516753565080
5.228128666000 -0.379877738324 -0.539348529931 0.587813006463 -0.409402275852 0.591111307575 -0.413072624908 -0.468200970848 -0.515164135185
5.229461777000 -0.384640806582 -0.534157813398 0.586270941184 -0.408243980367 0.587209645980 -0.408136349362 -0.466113971428 -0.514052226295
5.230794888000 -0.396488105738 -0.520926436151 0.566815126450 -0.402190762201 0.573154758904 -0.403119733739 -0.482970265641 -0.507520958699
5.232127999000 -0.387468135733 -0.519158795121 0.574207626197 -0.397553551606 0.579826539799 -0.397293392703 -0.474573433483 -0.504143986919
5.233461111000 -0.382242874029 -0.522002453264 0.577959792173 -0.397458385722 0.586001856654 -0.401110455193 -0.471514937050 -0.507517608730
5.234794222000 -0.381769306002 -0.523035148197 0.579754711259 -0.398067035849 0.586009920990 -0.398927821273 -0.472142446380 -0.508413619595
5.236127333000 -0.376513911081 -0.529199973363 0.586556885519 -0.398940969412 0.594080017727 -0.400348458189 -0.462204623280 -0.510076808867
5.237460444000 -0.385747562262 -0.516845468241 0.576038397012 -0.392415182559 0.583293174613 -0.394012444661 -0.470449448274 -0.503910493708
5.238793555000 -0.396734300426 -0.522740276433 0.566210454101 -0.401252586240 0.571760109688 -0.401577453911 -0.483962991990 -0.509850514304
5.240126666000 -0.390191970530 -0.519675231984 0.574112565636 -0.392657027446 0.579987295008 -0.391451469131 -0.469969457255 -0.500440996299
5.241459777000 -0.387418876871 -0.531214974118 0.573349152005 -0.403046987300 0.578984438737 -0.405900156715 -0.478730037948 -0.511923561156
5.242792888000 -0.391043756405 -0.528735146148 0.571032012746 -0.398209772209 0.574995790659 -0.400959870096 -0.478957195061 -0.505376998652
5.244125999000 -0.389475147818 -0.524449481648 0.572571424400 -0.390801971799 0.576329728239 -0.392983741290 -0.475398299352 -0.498077943189
5.245459111000 -0.388487301048 -0.526221587132 0.570581633083 -0.398137458101 0.580480018755 -0.399555117719 -0.477596849100 -0.510417011327
5.246792222000 -0.383292271822 -0.530082574955 0.569503363509 -0.397026371712 0.581029295370 -0.403884910546 -0.485010801656 -0.509230074721
5.248125333000 -0.386211408672 -0.526596786294 0.572335329247 -0.395528879367 0.581677664020 -0.397540631281 -0.477027880905 -0.507028941916
5.249458444000 -0.385820755542 -0.523181181697 0.573946257130 -0.387697038839 0.579988731586 -0.389776825939 -0.472802989892 -0.497065282075
5.250791555000 -0.386691258264 -0.522226926092 0.573685974498 -0.388031286313 0.581155972283 -0.388775841469 -0.471701245256 -0.498761594165
5.252124666000 -0.388756941369 -0.524939272538 0.574462926419 -0.388231910126 0.579405164938 -0.389303578904 -0.468325291891 -0.498556437361
5.253457777000 -0.384205613076 -0.524393540667 0.573417681705 -0.389417074044 0.581871452010 -0.392012759844 -0.473268133513 -0.504685935425
5.254790888000 -0.384272176660 -0.531542352442 0.572110812811 -0.395377958283 0.584340870663 -0.398861742794 -0.476372470022 -0.510724921016
5.256123999000 -0.381223459044 -0.527882058120 0.577751211467 -0.388519219917 0.586598256208 -0.390398161878 -0.466980425129 -0.501612995030
5.257457111000 -0.383084746517 -0.526817371458 0.571727475863 -0.381172891406 0.578154085882 -0.387080809980 -0.474241339432 -0.488367011560
5.258790222000 -0.382303615103 -0.524133606499 0.571502370229 -0.382418908565 0.581275037594 -0.387736695462 -0.474550123473 -0.496208640480
5.260123333000 -0.375258755572 -0.524428847016 0.579009361243 -0.384956139598 0.590968484348 -0.385495926655 -0.465647798522 -0.502968546438
5.261456444000 -0.378393230077 -0.526716253656 0.575415275035 -0.380483199332 0.584790785151 -0.386251661957 -0.470563185245 -0.495206337538
5.262789555000 -0.375794666109 -0.530135064560 0.577300908023 -0.384958355200 0.586852099038 -0.390301799763 -0.472245620543 -0.501269734032
5.264122666000 -0.369947167228 -0.527941451000 0.578357898772 -0.382029350562 0.593948636830 -0.385815342000 -0.467557221228 -0.498099356485
5.265455777000 -0.378246942952 -0.529199855730 0.575901957825 -0.377520823822 0.584646531656 -0.384073687613 -0.468639644862 -0.490769771598
5.266788888000 -0.370997822592 -0.529015354928 0.579654932612 -0.379456106856 0.592640478418 -0.383973486357 -0.466170450767 -0.497029370088
5.268121999000 -0.374911387177 -0.528291857008 0.572750254628 -0.379446618932 0.587954366294 -0.383003490965 -0.474107898959 -0.494124076606
5.269455111000 -0.366283442457 -0.531432959983 0.578192202547 -0.377299494143 0.592373220814 -0.384456523270 -0.472074163180 -0.493010250707
5.270788222000 -0.370745669192 -0.525816911549 0.579659383680 -0.370656095891 0.588156782011 -0.373346820495 -0.463806427691 -0.483251349697
5.272121333000 -0.372645417418 -0.526505149178 0.575762978852 -0.372237999897 0.587997136342 -0.375181091414 -0.467792109026 -0.484621432970
5.273454444000 -0.361868542626 -0.527272835025 0.585308057219 -0.368616076492 0.597820905530 -0.374981638821 -0.459562453661 -0.485946616387
5.274787555000 -0.367202068959 -0.527458117320 0.577115254557 -0.365840976242 0.588970867389 -0.371944007230 -0.467035396523 -0.477788475603
5.276120666000 -0.366588653604 -0.525545452009 0.581695055895 -0.365901066623 0.593021425761 -0.370068394881 -0.461318135325 -0.480979777391
5.277453777000 -0.358538947633 -0.532058286638 0.579729072521 -0.370827748117 0.597424802044 -0.381364293379 -0.470550036802 -0.490246235731
5.278786888000 -0.361047554940 -0.530580009858 0.586137109434 -0.370080653280 0.600030593389 -0.373955417823 -0.457660937557 -0.488893266447
5.280119999000 -0.364369980078 -0.529640422965 0.579862742953 -0.367953271741 0.595539050199 -0.372217387452 -0.464360409633 -0.484371881999
5.281453111000 -0.359436050623 -0.531410552249 0.582615126328 -0.363584597313 0.597347636833 -0.370505753404 -0.463373962989 -0.477877257778
5.282786222000 -0.361393891285 -0.539005777221 0.577394356014 -0.365253921530 0.590056830263 -0.378187261144 -0.473344891865 -0.476626517276
5.284119333000 -0.363878287652 -0.528750502031 0.576771514150 -0.360589313519 0.590058421710 -0.369244776101 -0.470602686390 -0.473702266194
5.285452444000 -0.357020351893 -0.529616198419 0.580479329408 -0.361826083308 0.597076379953 -0.371750937796 -0.469080419753 -0.479909723953
5.286785555000 -0.362939339188 -0.530623436981 0.579003572139 -0.367598885175 0.595762604430 -0.371541086592 -0.465833057408 -0.486036834885
5.288118666000 -0.353713454235 -0.525326853105 0.585966426606 -0.356486439388 0.603195869161 -0.361987983624 -0.456795727281 -0.474475689254
5.289451777000 -0.356231503633 -0.527895891054 0.577804447418 -0.352226839103 0.593470620224 -0.364080582226 -0.469648233734 -0.466530360519
5.290784888000 -0.356429872551 -0.527300478497 0.582139909211 -0.349887549699 0.595098784532 -0.357932371572 -0.463019389444 -0.461612655600
5.292117999000 -0.356865224559 -0.533783931164 0.578623866962 -0.354167604808 0.592602822649 -0.364481253293 -0.469468334553 -0.464175630624
5.293451111000 -0.359326238237 -0.531575436084 0.580392248369 -0.349319459821 0.591412741982 -0.359864299339 -0.465012915782 -0.458912608786
5.294784222000 -0.346596156170 -0.531415183892 0.585372409152 -0.350262166630 0.601404581962 -0.361423424712 -0.463960132316 -0.465638849284
5.296117333000 -0.360001541387 -0.530971734370 0.575477423339 -0.351684563081 0.590941634454 -0.362661469742 -0.471856612520 -0.465218013926
5.297450444000 -0.358041589840 -0.527478268791 0.572997517738 -0.351991747692 0.592300715084 -0.362522466430 -0.474788422241 -0.468356089890
5.298783555000 -0.354617194601 -0.525692605983 0.573512742918 -0.343733118267 0.591081020547 -0.358009158234 -0.475836261736 -0.457812059729
5.300116666000 -0.350591251469 -0.527327868455 0.579203526936 -0.343146291340 0.596990447365 -0.356514201666 -0.468538929762 -0.457097844751
5.301449777000 -0.352991299950 -0.531799743764 0.576868038653 -0.348529130579 0.595277296345 -0.362258627883 -0.473335804254 -0.463806404707
5.302782888000 -0.352639694602 -0.524934023681 0.578475480562 -0.341721847670 0.594380844227 -0.353288532375 -0.469773440917 -0.456992462622
5.304115999000 -0.348877567362 -0.526181054999 0.580426089159 -0.341660550872 0.596833667137 -0.354523490265 -0.469491864297 -0.457683785013
5.305449111000 -0.349782019352 -0.528393797848 0.582120243729 -0.340538835093 0.598695875245 -0.353605085785 -0.464770273470 -0.456981522940
5.306782222000 -0.349799788966 -0.529117736753 0.582050785740 -0.344750107134 0.602064868990 -0.355675912098 -0.463692917090 -0.463450084712
5.308115333000 -0.352373175337 -0.521699472048 0.576230684845 -0.335028483585 0.592697535342 -0.348714181129 -0.471300490433 -0.450713562278
5.309448444000 -0.351532281199 -0.530471487929 0.581925938337 -0.336122764792 0.593899006147 -0.350821568733 -0.465642932993 -0.448939050664
5.310781555000 -0.353778044094 -0.521055932828 0.575479821196 -0.335045396721 0.591538576412 -0.344758732960 -0.471277741298 -0.448549798478
5.312114666000 -0.355841848206 -0.532429994534 0.578882956448 -0.341509089319 0.593196178817 -0.355627321050 -0.471266605814 -0.455041494890
5.313447777000 -0.348535434124 -0.534775826509 0.588243414456 -0.336560777421 0.597810103603 -0.348790937463 -0.460610064373 -0.446515085876
5.314780888000 -0.353512594831 -0.528179314708 0.579652025472 -0.337869252501 0.594317700135 -0.350688236981 -0.469382746406 -0.452979230493
5.316113999000 -0.346577952924 -0.524632357249 0.584613432171 -0.331367005718 0.600536476647 -0.343441136896 -0.462009467216 -0.448478537322
5.317447111000 -0.342996553437 -0.530556064683 0.585250281303 -0.332377779131 0.601315034310 -0.350243798835 -0.466478812045 -0.450822452230
5.318780222000 -0.377852208306 -0.564820855070 0.555678115609 -0.367552417680 0.576300918082 -0.398108212728 -0.510602877850 -0.475779868879
5.320113333000 -0.375459715768 -0.564702683111 0.557322479337 -0.369702698071 0.581656682638 -0.396534960822 -0.507026206101 -0.479823859364
5.321446444000 -0.389305720087 -0.570628653867 0.546759367322 -0.378948248575 0.571905914270 -0.406973528317 -0.518393584742 -0.488320668195
5.322779555000 -0.369479837098 -0.566131890944 0.559167562813 -0.364095975203 0.585337999880 -0.396365801161 -0.507920486059 -0.475361837434
5.324112666000 -0.382300036667 -0.552037659942 0.546296352815 -0.362956135558 0.575561948070 -0.389429853032 -0.516805341353 -0.476446397394
5.325445777000 -0.377777330038 -0.559403877197 0.550493949735 -0.362029238589 0.579055007883 -0.393210442594 -0.515193750184 -0.473794474627
5.326778888000 -0.386258835146 -0.575048954608 0.554950879623 -0.372985360566 0.573214661613 -0.402717369893 -0.510806300673 -0.478832063863
5.328111999000 -0.355356708101 -0.514047736906 0.576497688810 -0.322069815192 0.592193963880 -0.336083755272 -0.471243160719 -0.442398657502
5.329445111000 -0.343618806104 -0.518034173302 0.583967308579 -0.321828211097 0.602041134380 -0.337808493286 -0.466736827993 -0.444047754557
5.330778222000 -0.354134792849 -0.519904879419 0.577814047268 -0.326528897544 0.595883068428 -0.341280443701 -0.469665451368 -0.447414065053
5.332111333000 -0.358536427583 -0.506110011085 0.570797805595 -0.320221813431 0.590587513029 -0.332042755444 -0.474790841851 -0.444144464860
5.333444444000 -0.354452274876 -0.518552911159 0.576341827030 -0.323163125126 0.592941300610 -0.338735687817 -0.472461999610 -0.443603134316
5.334777555000 -0.354457079993 -0.512590292994 0.576731062341 -0.318828849581 0.593743971324 -0.334713434327 -0.472471533864 -0.442700107341
5.336110666000 -0.359272195639 -0.519232656935 0.579397260819 -0.323670113333 0.591675024808 -0.337533247568 -0.468596832059 -0.444025402743
5.337443777000 -0.353195813217 -0.516734540089 0.579293533381 -0.322021610975 0.596432156122 -0.337254863180 -0.469314350171 -0.446073826422
5.338776888000 -0.365878131002 -0.518204663754 0.573086654340 -0.324692718589 0.588380196498 -0.339242006101 -0.473565186270 -0.446718086777
5.340109999000 -0.359442005885 -0.512291917387 0.579019993285 -0.317720508595 0.591033678975 -0.331774277101 -0.468259847054 -0.440047288479
5.341443111000 -0.354659119417 -0.513189296285 0.579185553212 -0.312441667427 0.593049903744 -0.333203203250 -0.470753483808 -0.437912277464
5.342776222000 -0.364530306524 -0.517190199881 0.575852819108 -0.322162800593 0.589221880890 -0.337075973416 -0.471991547553 -0.446068443741
5.344109333000 -0.359549069136 -0.518122482515 0.580932654304 -0.315743038934 0.593244779040 -0.335628864595 -0.467512497589 -0.440165592709
5.345442444000 -0.358086467376 -0.507545285465 0.577622427139 -0.312453400935 0.594513167185 -0.328693592810 -0.468516883364 -0.439555226716
5.346775555000 -0.357034823227 -0.508998321088 0.580995540831 -0.313127922991 0.595617346468 -0.329980818574 -0.466334825922 -0.440589930276
5.348108666000 -0.363496594489 -0.511460199968 0.577383867065 -0.315572375533 0.591472006583 -0.330469022764 -0.468882027806 -0.441529118703
5.349441777000 -0.355173924994 -0.511683455511 0.584198915541 -0.311153092374 0.596950212796 -0.330430821404 -0.464428331971 -0.439078828432
5.350774888000 -0.355578553438 -0.507548188668 0.583703619463 -0.312009641684 0.598520872153 -0.327826706539 -0.464133257739 -0.441624396675
5.352107999000 -0.363685834850 -0.512626758311 0.582517328558 -0.312912127686 0.592597803810 -0.330117695957 -0.465298175801 -0.439329273234
5.353441111000 -0.361333295511 -0.502759637349 0.578561865261 -0.309893330197 0.595365655331 -0.325092352572 -0.466965511676 -0.441176513306
5.354774222000 -0.351282892290 -0.502677621915 0.583631415215 -0.303327397523 0.601544334597 -0.323622063892 -0.463404179188 -0.435882661696
5.356107333000 -0.363331653394 -0.506856996587 0.585448703157 -0.310884150165 0.593612427239 -0.325981593350 -0.461519148623 -0.439521534998
5.357440444000 -0.361548324101 -0.498890335897 0.581347943952 -0.306610584437 0.596389121534 -0.321262275404 -0.462675813732 -0.438979968176
5.358773555000 -0.362228012643 -0.505960172246 0.586486507571 -0.307845466698 0.596573872974 -0.325174966201 -0.458506894768 -0.439566671761
5.360106666000 -0.363315607447 -0.508000727312 0.588340245678 -0.308544756892 0.595530444211 -0.325607088251 -0.459330315630 -0.439723488044
5.361439777000 -0.365390494606 -0.506769575062 0.589063690715 -0.307036306547 0.594768490193 -0.324848540812 -0.458427793653 -0.438253653418
5.362772888000 -0.358615153581 -0.489486721568 0.583038179926 -0.297468311746 0.598266837026 -0.314519685725 -0.460793145502 -0.434995600092
5.364105999000 -0.356525024495 -0.504438952960 0.595296399836 -0.303611770172 0.603123173557 -0.322244214796 -0.450254621248 -0.437895452895
5.365439111000 -0.358843367845 -0.493576310950 0.585706998190 -0.298118539904 0.598863140678 -0.316264373866 -0.459812729560 -0.434710126254
5.366772222000 -0.361412472169 -0.500910018139 0.591217839602 -0.306940073223 0.600557013422 -0.321784688319 -0.453845105580 -0.442690724360
5.368105333000 -0.365301364398 -0.491936005893 0.586696942743 -0.296969079617 0.595295062129 -0.313784660856 -0.457446541933 -0.431494295532
5.369438444000 -0.366663185639 -0.496306389553 0.590100931704 -0.302292169146 0.596500237563 -0.315827162409 -0.454737467351 -0.436103696933
5.370771555000 -0.365401381310 -0.494250500661 0.592294494248 -0.301052664834 0.598285217308 -0.313512359224 -0.452122962176 -0.434874617404
5.372104666000 -0.350352042908 -0.490512149745 0.598910909943 -0.293996125191 0.609161818371 -0.313160985829 -0.446386906220 -0.434806053002
5.373437777000 -0.360275355172 -0.493964024552 0.595543579488 -0.294853880725 0.600914642945 -0.313755814578 -0.451017388751 -0.430336458950
5.374770888000 -0.357307047085 -0.494174019991 0.599592150395 -0.297798794723 0.605635152483 -0.313894242592 -0.445054093751 -0.435156353527
5.376103999000 -0.362865652114 -0.486120171020 0.592568161054 -0.291201556707 0.598718009153 -0.308860470215 -0.452746965919 -0.429332314253
5.377437111000 -0.361420061871 -0.482620271138 0.593927662182 -0.290904714251 0.601200809710 -0.304898845328 -0.449384499375 -0.427986640276
5.378770222000 -0.367167171962 -0.487805072076 0.591128513120 -0.293816257257 0.595397161485 -0.307831671328 -0.452867737275 -0.428792114653
5.380103333000 -0.357562335355 -0.488016397346 0.603323032686 -0.288904704913 0.602653938590 -0.306888504417 -0.445092895302 -0.425147983203
5.381436444000 -0.355219426878 -0.478981398016 0.604526260439 -0.285617902037 0.608122212922 -0.297916873898 -0.437645817397 -0.421930477049
5.382769555000 -0.350624787963 -0.481622249662 0.607158403396 -0.287454944117 0.613090903914 -0.303070316591 -0.436723981852 -0.429253957817
5.384102666000 -0.359617515612 -0.479135897937 0.602961246275 -0.288086733971 0.606385710029 -0.298308137114 -0.439153701057 -0.425654440133
5.385435777000 -0.354106930751 -0.480988560309 0.607002482164 -0.287273578207 0.608830159505 -0.301843782667 -0.437858999529 -0.426013520044
5.386768888000 -0.364447530800 -0.484908558362 0.600498395129 -0.298575260066 0.605373950832 -0.304960220277 -0.440892077832 -0.436704594405
5.388101999000 -0.356820242493 -0.480453340789 0.603675666727 -0.289769402803 0.608178748038 -0.303615348865 -0.441604143434 -0.430257380664
5.389435111000 -0.357031414932 -0.484720327228 0.609960607915 -0.296136157841 0.610354639283 -0.305808248366 -0.433904609374 -0.435489302651
5.390768222000 -0.354492351757 -0.480529537052 0.609893899633 -0.291157127075 0.612849228337 -0.304197936792 -0.436026884247 -0.434028009587
5.392101333000 -0.359277566814 -0.485844508376 0.609104394358 -0.291829958763 0.607266810527 -0.305576277575 -0.437061121528 -0.431601482671
5.393434444000 -0.353149731864 -0.476073065402 0.614358361455 -0.287423855348 0.614130117726 -0.296700506316 -0.428669921796 -0.427988067273
5.394767555000 -0.355195794069 -0.475200357323 0.609581652165 -0.286908331802 0.612112054357 -0.300204988488 -0.435212648027 -0.429339608452
5.396100666000 -0.358831483654 -0.474226872114 0.605745604411 -0.289450334741 0.610770787275 -0.298760440066 -0.436351219799 -0.431413771752
5.397433777000 -0.354391360773 -0.478746149183 0.611757777279 -0.291347674308 0.615085316561 -0.303061371395 -0.431339431788 -0.434301345269
5.398766888000 -0.356786548158 -0.474486650157 0.613178403495 -0.287456303826 0.611202491412 -0.296822780841 -0.430761357485 -0.428054279127
5.400099999000 -0.348431436644 -0.475183588568 0.615647412306 -0.286610833882 0.616383630630 -0.297337032969 -0.429681089989 -0.428434596928
5.401433111000 -0.354400083328 -0.475191080606 0.614463397832 -0.290017424004 0.617070293661 -0.297528335386 -0.427601593983 -0.430760781071
5.402766222000 -0.354860665830 -0.477734084535 0.613082942170 -0.294640773376 0.614438029144 -0.302398865870 -0.431468039286 -0.436334447790
5.404099333000 -0.349529452363 -0.481560037160 0.620804950240 -0.293779424054 0.620691889360 -0.305478577060 -0.425691544384 -0.437800293784
5.405432444000 -0.353082877125 -0.473900025700 0.618435793999 -0.293679130967 0.617337771507 -0.297125532176 -0.425479978011 -0.434167969579
5.406765555000 -0.348030037123 -0.476986417863 0.622681074115 -0.293341736252 0.621299978194 -0.299836182828 -0.422987483792 -0.434580725865
5.408098666000 -0.346073568981 -0.476070638671 0.622500696996 -0.294343098764 0.625059535245 -0.300786328445 -0.423792933400 -0.437472099354
5.409431777000 -0.346317690900 -0.474644041229 0.625138725535 -0.294960052372 0.626895688780 -0.296525159639 -0.417380057265 -0.437736480401
5.410764888000 -0.348050424052 -0.475440182567 0.623076822348 -0.294345053877 0.622704963551 -0.300561547946 -0.423107730468 -0.436981784074
5.412097999000 -0.351042113242 -0.475269124261 0.622716368861 -0.294472472921 0.622892622693 -0.297118560105 -0.420312988159 -0.435866597092
5.413431111000 -0.345910837003 -0.479905944085 0.627758037057 -0.299829545707 0.626090776031 -0.304031219146 -0.417912526944 -0.441324960765
5.414764222000 -0.343066181892 -0.480580244375 0.629239739252 -0.301216824719 0.630101746983 -0.305503679100 -0.417109874312 -0.444137954678
5.416097333000 -0.343812610925 -0.476619847371 0.626465339374 -0.301886889839 0.630837158563 -0.301055981756 -0.416660149120 -0.444257182185
5.417430444000 -0.343870182489 -0.474791954004 0.630276793975 -0.299596778080 0.630921816043 -0.296824182758 -0.411931995724 -0.441157423957
5.418763555000 -0.343731658865 -0.481151784996 0.626036554013 -0.303060998141 0.632308001597 -0.306427316460 -0.417357123126 -0.446871217256
5.420096666000 -0.342746849901 -0.476906284479 0.630258253752 -0.302210145610 0.630588584344 -0.299147981019 -0.413722158149 -0.442059403077
5.421429777000 -0.345645340211 -0.481320786021 0.628774609766 -0.306873963872 0.628816445261 -0.306586583521 -0.416694738761 -0.449054424876
5.422762888000 -0.341411673902 -0.480043329790 0.632383084707 -0.306828674489 0.634926221355 -0.303004735840 -0.410921550680 -0.448181961062
5.424095999000 -0.340736084265 -0.479802999030 0.630867886336 -0.307572922390 0.636375819753 -0.304801245329 -0.412201671271 -0.450759575777
5.425429111000 -0.340343673646 -0.480996122267 0.632091297175 -0.307570833991 0.636918310990 -0.306758145907 -0.411908905566 -0.451658711748
5.426762222000 -0.338023385652 -0.480799535289 0.633685334540 -0.306636661099 0.638466193971 -0.307617846044 -0.411515023567 -0.451615308802
5.428095333000 -0.338526747812 -0.480254282004 0.633938108449 -0.309129541649 0.639881011847 -0.305408954016 -0.408466970412 -0.452328754572
5.429428444000 -0.336778698930 -0.482380863306 0.637826401055 -0.307906921994 0.638267024851 -0.309086160254 -0.407858136842 -0.452464289947
5.430761555000 -0.337644543367 -0.484328008288 0.634441227035 -0.312731970875 0.640200281068 -0.313130339994 -0.411347611459 -0.457645175893
5.432094666000 -0.336225181204 -0.482665409440 0.632264642155 -0.313878004157 0.643758510621 -0.309490176822 -0.408775568375 -0.458464742333
5.433427777000 -0.339413461751 -0.482721245771 0.636278775073 -0.312869291026 0.636369729389 -0.309726804838 -0.409898441193 -0.454329163208
5.434760888000 -0.343165292233 -0.486358356158 0.630792117996 -0.316564642685 0.634582087589 -0.314606606627 -0.414827881635 -0.459202214560
5.436093999000 -0.339670796098 -0.486108818435 0.630410820453 -0.316363933766 0.641716115257 -0.315472560735 -0.411014518472 -0.461505343242
5.437427111000 -0.339880394883 -0.481768925349 0.632524371633 -0.314939681102 0.638750339430 -0.308977356166 -0.409054247663 -0.457137985693
5.438760222000 -0.338887948116 -0.484004674481 0.630244333835 -0.313968449381 0.639497742065 -0.312506231682 -0.411493268287 -0.458166626367
5.440093333000 -0.338123761186 -0.483544285173 0.629439745900 -0.315854043184 0.640923162049 -0.311782020271 -0.410644407526 -0.459784925655
5.441426444000 -0.339023484306 -0.487788339035 0.633503693716 -0.320314727667 0.639821102531 -0.316356528652 -0.410576882533 -0.461721527587
5.442759555000 -0.337970872055 -0.487909053941 0.630427224424 -0.318681810027 0.640781478116 -0.318645454102 -0.411847203865 -0.463321597597
5.444092666000 -0.338411031452 -0.487224897357 0.632074100971 -0.321725703501 0.640701808969 -0.316890974047 -0.410385812647 -0.463989912442
5.445425777000 -0.336483147921 -0.487591166274 0.632099287613 -0.322845165538 0.643048262412 -0.316743824454 -0.409284980643 -0.465186247626
5.446758888000 -0.339882036433 -0.487709264435 0.630476547168 -0.323900585649 0.639689213908 -0.319509370791 -0.411725146364 -0.466949570998
5.448091999000 -0.336196523536 -0.489173500648 0.631015830668 -0.321883927635 0.641773315522 -0.319336695964 -0.410578179845 -0.465218942241
5.449425111000 -0.337149387180 -0.489561522370 0.629586337251 -0.324488267525 0.642868549724 -0.320914128805 -0.410509947862 -0.468774653901
5.450758222000 -0.338290624362 -0.491123020347 0.631076979199 -0.326389503388 0.640823839273 -0.321453969136 -0.411109050761 -0.468321033847
5.452091333000 -0.338331563376 -0.490079282261 0.628534839849 -0.326662808269 0.640912680812 -0.322014132980 -0.412451028874 -0.469120765675
5.453424444000 -0.337203048129 -0.493532883978 0.630647916196 -0.324468202670 0.640988756658 -0.324070831489 -0.410683412274 -0.467604968922
5.454757555000 -0.339169586209 -0.490996058347 0.628315359732 -0.328509540089 0.640249908691 -0.323992922490 -0.411460356955 -0.471516124025
5.456090666000 -0.339170762849 -0.492853879253 0.629192943004 -0.330265856223 0.640354255745 -0.324889027427 -0.411913853360 -0.471883789893
5.457423777000 -0.339081975062 -0.492308786900 0.629358138172 -0.332060576531 0.641346749592 -0.325038982724 -0.410682089539 -0.473693329172
5.458756888000 -0.340944274268 -0.496241552145 0.627566304044 -0.331385474402 0.639098182588 -0.328242616478 -0.413633351142 -0.473099444577
5.460089999000 -0.337856526559 -0.493667507446 0.627053363843 -0.331031642287 0.641513537852 -0.326486976647 -0.411135895212 -0.473658785237
5.461423111000 -0.339860588614 -0.495760158612 0.626973848200 -0.331604299408 0.639150607332 -0.328575113520 -0.412325155825 -0.474322757446
5.462756222000 -0.339024989608 -0.495949172215 0.626602958997 -0.332645357567 0.639579146348 -0.329174893451 -0.413097535341 -0.475496337491
5.464089333000 -0.338911022711 -0.499023362791 0.624568653991 -0.333920339593 0.639467585194 -0.332102770527 -0.415032183402 -0.477104323027
5.465422444000 -0.336486773420 -0.494014836853 0.624415502256 -0.331296647351 0.640319524227 -0.327307445481 -0.414087036613 -0.473601807192
5.466755555000 -0.341144580581 -0.494012999056 0.621206562070 -0.332447247341 0.636504973371 -0.328027762534 -0.417391745758 -0.473983753947
5.468088666000 -0.342616860030 -0.496322285586 0.620011164546 -0.335586108683 0.635402527707 -0.332589695446 -0.417978206400 -0.479366503033
5.469421777000 -0.338079407275 -0.495976999077 0.621600956958 -0.332533737234 0.637102022173 -0.330980841413 -0.417511750280 -0.476239512297
5.470754888000 -0.339788612099 -0.499119301527 0.620995637302 -0.337007448512 0.637123627919 -0.335262793986 -0.418333241967 -0.481310791415
5.472087999000 -0.344142650330 -0.499044970685 0.619805004473 -0.336107165853 0.633832728447 -0.333046798602 -0.417041563640 -0.478608613165
5.473421111000 -0.343415528365 -0.499070513553 0.619617221246 -0.338044513701 0.634783396067 -0.333224739790 -0.416613302178 -0.479911466840
5.474754222000 -0.342817059442 -0.498412557775 0.618451417009 -0.338938556849 0.636260706796 -0.333721002913 -0.416640857589 -0.481611994362
5.476087333000 -0.344630245012 -0.498410550739 0.615877214274 -0.336210616917 0.631204680129 -0.333224654366 -0.421578628234 -0.478321948504
5.477420444000 -0.345078002171 -0.499137961314 0.614971454278 -0.337373049317 0.630666367392 -0.333722532571 -0.422103828198 -0.478663848439
5.478753555000 -0.346565916084 -0.500921934570 0.613704382366 -0.338069688123 0.626970081873 -0.335585422929 -0.425614781280 -0.479524499324
5.480086666000 -0.345621985752 -0.502368416079 0.615705242135 -0.339165398499 0.630377353310 -0.334338777663 -0.420013711800 -0.478926427599
5.481419777000 -0.343318115328 -0.501279452029 0.616461648545 -0.336467655293 0.629976390797 -0.334010992481 -0.420375451798 -0.475625432775
5.482752888000 -0.345033678007 -0.502564656805 0.615701162271 -0.338782039173 0.629009710409 -0.333300082954 -0.419868440819 -0.477697692321
5.484085999000 -0.349211284809 -0.499777763723 0.607935812386 -0.339244766512 0.625637695622 -0.336731298960 -0.428933245768 -0.480002679721
5.485419111000 -0.345742935035 -0.504143860607 0.615867206038 -0.339572846852 0.628456407936 -0.334464350998 -0.421350195917 -0.478205724659
5.486752222000 -0.350176858233 -0.498243695481 0.604306497627 -0.336261809284 0.622374607687 -0.334349537587 -0.432566492168 -0.477017095082
5.488085333000 -0.349190488363 -0.502732614313 0.609701403613 -0.338361481894 0.626564237886 -0.337099712942 -0.424070431880 -0.480376268370
5.489418444000 -0.351103502014 -0.504910349406 0.608052793249 -0.340495959788 0.620860456033 -0.335893206918 -0.429482982864 -0.476732078766
5.490751555000 -0.352990176799 -0.497148270619 0.603591138801 -0.334733946332 0.622087067495 -0.332613511149 -0.428515920834 -0.476359275574
5.492084666000 -0.348917100043 -0.508882868193 0.606729052470 -0.342637669973 0.624820890123 -0.340763228845 -0.428559944108 -0.483924587806
5.493417777000 -0.351861551451 -0.498333744314 0.602264410446 -0.332018142538 0.620395738659 -0.331671808969 -0.430837889494 -0.473046670499
5.494750888000 -0.351796822486 -0.502215448991 0.602875351294 -0.338702549972 0.621525505775 -0.336096327885 -0.431115653712 -0.478821410521
5.496083999000 -0.355512222569 -0.496337508551 0.599997569182 -0.335564399054 0.619393675754 -0.333679226999 -0.431429938759 -0.475883665683
5.497417111000 -0.358932182332 -0.502338092276 0.600282008849 -0.338241434235 0.613108075452 -0.333033002382 -0.433561260026 -0.475093733291
5.498750222000 -0.352232526797 -0.502254366987 0.599979874863 -0.337631768757 0.618635867368 -0.337108423520 -0.432703329196 -0.479700470820
5.500083333000 -0.355447882176 -0.503314714042 0.596535288472 -0.337726231110 0.617877955263 -0.338363057367 -0.435431788653 -0.479541926940
5.501416444000 -0.362492346287 -0.496476643192 0.590785132558 -0.335819172242 0.613277463990 -0.331167047275 -0.438074650994 -0.476960238147
5.502749555000 -0.354826413021 -0.506195903274 0.600726037657 -0.341567338903 0.618382008717 -0.337969282282 -0.430479025630 -0.480304951414
5.504082666000 -0.351725728963 -0.507938654990 0.600067103859 -0.340893859248 0.621269277122 -0.340763459494 -0.432509046975 -0.481840852928
5.505415777000 -0.359613616262 -0.507280486671 0.590897554832 -0.338414317701 0.610288793446 -0.340486816544 -0.443491188849 -0.478399404389
5.506748888000 -0.359213167514 -0.495688637865 0.592516088169 -0.330515758434 0.612030350312 -0.331704281963 -0.438891306326 -0.473391520157
5.508081999000 -0.365518030211 -0.513370077763 0.588636940140 -0.343015212613 0.603917965486 -0.347243625602 -0.448413699980 -0.481048878630
5.509415111000 -0.365640584697 -0.507098891156 0.587377306905 -0.339296550580 0.605575473363 -0.340527962782 -0.446329634070 -0.478432903702
5.510748222000 -0.359482303805 -0.498920613008 0.592577576736 -0.329621294333 0.609424531854 -0.329533338762 -0.438021805253 -0.466624886181
5.512081333000 -0.368646095095 -0.500365083562 0.584634183132 -0.332527095985 0.603161192642 -0.334059885682 -0.445545012314 -0.470581088852
5.513414444000 -0.360860246720 -0.500270779158 0.585347577055 -0.337846835268 0.610467717495 -0.333568627930 -0.443580170263 -0.477305419951
5.514747555000 -0.367680591526 -0.502433699577 0.584265340777 -0.333954075334 0.603000218895 -0.335150818883 -0.447091054515 -0.472198102587
5.516080666000 -0.362141458695 -0.502531656895 0.587090672483 -0.332373094534 0.608635878907 -0.335883991414 -0.444939953126 -0.473235618466
5.517413777000 -0.368249700844 -0.504731821009 0.582694686070 -0.335303552316 0.602569720714 -0.335252636663 -0.449149526907 -0.472575599032
5.518746888000 -0.366141965040 -0.499763680941 0.584960473281 -0.328847345972 0.601959165892 -0.332237261046 -0.446708009766 -0.469680621104
5.520079999000 -0.373444892791 -0.500801345025 0.578392231098 -0.333374341823 0.598014958718 -0.331819389353 -0.450827569873 -0.469702799158
5.521413111000 -0.372567364331 -0.504481507277 0.576656504301 -0.335844099963 0.597394632779 -0.336287541837 -0.455389473886 -0.474024830522
5.522746222000 -0.373814545522 -0.501704176146 0.576888682470 -0.328894446980 0.592637718029 -0.330801140969 -0.456659800277 -0.463823101651
5.524079333000 -0.374762021780 -0.495107747164 0.574011002385 -0.324241057801 0.594948766996 -0.329249710750 -0.454523428144 -0.466371634893
5.525412444000 -0.380700188997 -0.499628202391 0.570599991330 -0.329532124732 0.590598316771 -0.329733008908 -0.457439106346 -0.465648717865
5.526745555000 -0.376964690678 -0.502830340409 0.572208433217 -0.330305784922 0.593108827513 -0.335492518471 -0.457669676953 -0.469244767964
5.528078666000 -0.373342831257 -0.503885177601 0.573810543749 -0.329695730490 0.594188463992 -0.335160878145 -0.458998554844 -0.467673654157
5.529411777000 -0.371625495707 -0.498696545431 0.575536454122 -0.324819625333 0.596812113823 -0.329824675559 -0.455014115490 -0.464152414726
5.530744888000 -0.375587869786 -0.491668768957 0.573072037678 -0.320665035382 0.593242373961 -0.321651396789 -0.456037460718 -0.459337401942
5.532077999000 -0.383001909909 -0.499315843826 0.565868474924 -0.329929911424 0.587615451590 -0.329574198028 -0.461787549621 -0.466255225974
5.533411111000 -0.384882032394 -0.492004375339 0.564803626061 -0.319377867225 0.583566439167 -0.322398437804 -0.464079526287 -0.458714845535
5.534744222000 -0.378595537317 -0.495732942217 0.568376915077 -0.319986888091 0.588287517238 -0.328653185295 -0.462867871376 -0.460493689597
5.536077333000 -0.385636225311 -0.497632208006 0.563514219568 -0.322940281107 0.584259107019 -0.329181691621 -0.465992629412 -0.461735480832
5.537410444000 -0.388104043782 -0.492950157121 0.559708806804 -0.321008557825 0.582527082771 -0.324245949150 -0.466907285963 -0.458870344205
5.538743555000 -0.383250402109 -0.495228794690 0.563200391704 -0.316936130210 0.585391548621 -0.325815596532 -0.467246580968 -0.456380143598
5.540076666000 -0.390448555677 -0.487601894890 0.564666277378 -0.314689515885 0.577444533591 -0.317371301187 -0.462951421764 -0.453247201932
5.541409777000 -0.388862357184 -0.494478055560 0.561525052034 -0.317088986083 0.578277660053 -0.323945448340 -0.468170751201 -0.455448473740
5.542742888000 -0.391982799950 -0.493636305596 0.556818421754 -0.321283939904 0.576931953015 -0.322227630732 -0.472107519422 -0.457578282290
5.544075999000 -0.395255757313 -0.491733946467 0.557554758766 -0.315563011528 0.573138503582 -0.320241517245 -0.471046941775 -0.452024435086
5.545409111000 -0.395120339658 -0.482721007551 0.556828178349 -0.310467108757 0.573797625886 -0.313576565559 -0.470815584990 -0.450239256656
5.546742222000 -0.392987861620 -0.492503089750 0.556133317699 -0.313936879475 0.576226943891 -0.321756094894 -0.473317869542 -0.452454710438
5.548075333000 -0.390453992874 -0.488922538904 0.557884502813 -0.311089676391 0.576955803918 -0.316850506846 -0.470532790892 -0.449017643517
5.549408444000 -0.397125496469 -0.485323381281 0.549971225125 -0.310048028240 0.571154402895 -0.315334856823 -0.476799000564 -0.447410670046
5.550741555000 -0.397290849525 -0.479777151210 0.550318809563 -0.302606924085 0.570123824964 -0.309967484728 -0.477811224887 -0.443220133838
5.552074666000 -0.398140522884 -0.483652845441 0.550708193430 -0.305385737833 0.569181074550 -0.312817719565 -0.478496807840 -0.444369204657
5.553407777000 -0.395783439570 -0.482754079592 0.550583277824 -0.301732981230 0.570567425760 -0.311786127853 -0.479522852740 -0.442890384769
5.554740888000 -0.406346927846 -0.480776941426 0.545556470808 -0.302832664518 0.563193763875 -0.309377897506 -0.482583376378 -0.440148481134
5.556073999000 -0.405167589768 -0.480856649037 0.544026514206 -0.302649714755 0.562659408712 -0.309833945108 -0.483010143099 -0.440510079533
5.557407111000 -0.408665281956 -0.478924490233 0.542364964518 -0.301518363318 0.559843456415 -0.307565602421 -0.483194815887 -0.439628523676
5.558740222000 -0.407371638030 -0.476178050431 0.541804011740 -0.295851085089 0.560455562356 -0.304875852920 -0.485147610179 -0.435096070618
5.560073333000 -0.409711457558 -0.476728899465 0.542071830118 -0.299351294863 0.559938500058 -0.305250708450 -0.485269900266 -0.437103069504
5.561406444000 -0.407826622094 -0.475433385868 0.539877419542 -0.294883045121 0.560674922167 -0.304608239822 -0.486573731040 -0.434434777275
5.562739555000 -0.407798300946 -0.476413104197 0.544628882161 -0.294557027776 0.560641381447 -0.304159079000 -0.482529884891 -0.434797247618
5.564072666000 -0.413936071575 -0.468968586862 0.537922249694 -0.290604572287 0.555548426142 -0.298680412428 -0.487415551629 -0.429173039309
5.565405777000 -0.410994838061 -0.471918545127 0.536635996767 -0.289491493250 0.557411574564 -0.301259306367 -0.490280499145 -0.430048122492
5.566738888000 -0.415817132555 -0.469280543100 0.535574267922 -0.282098457309 0.553126076947 -0.298332675655 -0.490819531492 -0.421843434381
5.568071999000 -0.410868343153 -0.466974382762 0.537986571399 -0.284853818068 0.557440280220 -0.295631698389 -0.487825622639 -0.425370515597
5.569405111000 -0.411094441665 -0.466748220523 0.536880622496 -0.285957671633 0.557664433870 -0.294647035201 -0.490048709080 -0.427514127804
5.570738222000 -0.416824894512 -0.466593663398 0.532260964731 -0.281246710162 0.552095324551 -0.295978932725 -0.494188053483 -0.421998748424
5.572071333000 -0.415312643805 -0.464792900371 0.532024249147 -0.279934564762 0.552884847616 -0.293724602039 -0.494687848048 -0.421974606410
5.573404444000 -0.416409243412 -0.462500007291 0.534916692771 -0.279556379586 0.552714162794 -0.292003403045 -0.490705287820 -0.420623049665
5.574737555000 -0.417109353965 -0.462988988989 0.533669324995 -0.280272274727 0.552046148972 -0.291734347491 -0.493764427816 -0.423662294517
5.576070666000 -0.421714346374 -0.459743995211 0.531419005593 -0.276981189903 0.548065663123 -0.286962012991 -0.493522904489 -0.417163826597
5.577403777000 -0.421969210161 -0.457338412805 0.529071403787 -0.272843613889 0.547728557147 -0.287167628022 -0.496227371297 -0.413985092139
5.578736888000 -0.423496833377 -0.456908518819 0.529063069546 -0.273133451239 0.545834575153 -0.285414661923 -0.497579867380 -0.413968911681
5.580069999000 -0.423061920389 -0.454157465591 0.527613209120 -0.271512298501 0.546696403026 -0.282609766978 -0.499517901108 -0.412443998888
5.581403111000 -0.421823288670 -0.455386988240 0.528612273173 -0.271323268657 0.548421522272 -0.283665377970 -0.497679907773 -0.413638298231
5.582736222000 -0.420867513171 -0.454479696879 0.529393723445 -0.268496589110 0.550232514763 -0.283066916701 -0.495817709367 -0.411116254349
5.584069333000 -0.423210939744 -0.448840081460 0.531165634185 -0.264802483152 0.546933631715 -0.275989310734 -0.493724415848 -0.405894977998
5.585402444000 -0.424572194348 -0.446367892441 0.530825965291 -0.260460048337 0.545025726783 -0.274120211399 -0.494198864470 -0.401570587479
5.586735555000 -0.424182805894 -0.444387816451 0.527951295554 -0.259871009033 0.545198959990 -0.273003362436 -0.497889075998 -0.401882713947
5.588068666000 -0.425653336554 -0.442622713728 0.525924425618 -0.259381003795 0.544162228353 -0.270011843061 -0.499722143070 -0.402224560976
5.589401777000 -0.427404932389 -0.439547148103 0.524025581260 -0.252474011825 0.543062455491 -0.266739839651 -0.500682839511 -0.394108581497
5.590734888000 -0.428551789727 -0.443922835631 0.527095447139 -0.257689564787 0.543584376203 -0.269971789482 -0.496922894171 -0.402086432178
5.592067999000 -0.427045326563 -0.442249670801 0.530592840404 -0.251674628742 0.542523404493 -0.269470340191 -0.494659139490 -0.394550252185
5.593401111000 -0.430724167466 -0.433917770382 0.523950804040 -0.249072638258 0.538800982412 -0.261142206356 -0.500395541612 -0.392847934054
5.594734222000 -0.426983102776 -0.434494011175 0.521024317656 -0.247410342406 0.543730621017 -0.263605641490 -0.504959169228 -0.392241977460
5.596067333000 -0.423224602436 -0.432456171735 0.531428924969 -0.245348918871 0.547634021161 -0.257557513122 -0.491674200544 -0.387809174409
5.597400444000 -0.420723576765 -0.429432931226 0.535115599390 -0.244729725838 0.549805273595 -0.254821936639 -0.488357827722 -0.388519405236
5.598733555000 -0.429777251975 -0.427899950689 0.534514262665 -0.247960610045 0.542146415334 -0.251772948135 -0.488895196171 -0.390692552019
5.600066666000 -0.430471895772 -0.436222644625 0.531236229606 -0.244614465988 0.543422200015 -0.262716545165 -0.492838045730 -0.392017734035
5.601399777000 -0.431428869514 -0.420990194249 0.529209845855 -0.234749514066 0.541328582809 -0.250765900504 -0.494273466680 -0.379472344071
5.602732888000 -0.431953764260 -0.425556732891 0.527535210241 -0.236603133142 0.538347218368 -0.253002983515 -0.497046936997 -0.380138693238
5.604065999000 -0.424760919523 -0.415769124158 0.530470892184 -0.233646285961 0.546141818146 -0.243863903666 -0.491850247126 -0.379834705938
5.605399111000 -0.430317233345 -0.425524971953 0.528233688445 -0.236656265291 0.539377491834 -0.254099052890 -0.498136851436 -0.382399788566
5.606732222000 -0.427145342932 -0.423342533640 0.533393409619 -0.229364155498 0.542925020858 -0.253207763665 -0.494124111941 -0.375747910937
5.608065333000 -0.433478042427 -0.415850273242 0.525261432877 -0.224383254684 0.538878793099 -0.246901327812 -0.499869784781 -0.369739724403
5.609398444000 -0.414003652740 -0.417924241720 0.542884220751 -0.229973294330 0.558653086909 -0.244575477184 -0.483190336993 -0.379345735464
5.610731555000 -0.430590394829 -0.412315722480 0.530993714690 -0.226300988448 0.540614952249 -0.240545745513 -0.494373095772 -0.370857042856
5.612064666000 -0.423586231436 -0.408138633916 0.539128406614 -0.222246033878 0.547965050353 -0.233070675918 -0.486125494302 -0.366458846007
5.613397777000 -0.417346165197 -0.406803833583 0.537975736396 -0.222193726705 0.554014524128 -0.232694529162 -0.486477894089 -0.369695010601
5.614730888000 -0.426243917909 -0.413375436289 0.537604644912 -0.222797711657 0.542914079904 -0.240287779113 -0.489791775497 -0.367889080191
5.616063999000 -0.421601914953 -0.411469155749 0.536771609665 -0.222895630862 0.550486301033 -0.237609054900 -0.488903620689 -0.369683093348
5.617397111000 -0.424473154426 -0.405629091724 0.535464608583 -0.222778512852 0.550504916665 -0.230683241819 -0.487881785725 -0.371812989519
5.618730222000 -0.424694079113 -0.404538857800 0.537674958795 -0.218052679906 0.548924964476 -0.230803854196 -0.487602672449 -0.363894259915
5.620063333000 -0.422602210496 -0.406108601758 0.535558829011 -0.218169013546 0.552644594068 -0.234016402987 -0.488327693168 -0.366800860185
5.621396444000 -0.417228645173 -0.398208820162 0.543921337845 -0.215002899938 0.557857986524 -0.224054736567 -0.479967288907 -0.363764512459
5.622729555000 -0.422980932538 -0.401622064381 0.547993177211 -0.212750386051 0.549995740213 -0.226888471165 -0.479026868660 -0.358841634436
5.624062666000 -0.408824541354 -0.396282609324 0.552772747374 -0.216693257715 0.566071658712 -0.218208013346 -0.469649457720 -0.361748547694
5.625395777000 -0.417219384210 -0.391419624150 0.546811956706 -0.202126458404 0.553892611122 -0.219292765704 -0.477841121057 -0.350269547555
5.626728888000 -0.403075755717 -0.404441424557 0.555913978217 -0.212336968220 0.574899019483 -0.229641347470 -0.466803270127 -0.363628298601
5.628061999000 -0.405217787282 -0.400228991340 0.563585494280 -0.206480172579 0.568456249548 -0.224651557371 -0.461384887967 -0.356437269962
5.629395111000 -0.412159539224 -0.388788052808 0.553478279315 -0.209313228371 0.563650868681 -0.211564730519 -0.468282470193 -0.355124952222
5.630728222000 -0.404192484364 -0.396308947438 0.564269936111 -0.209728487111 0.570851826610 -0.219234829728 -0.460364408445 -0.359231122527
5.632061333000 -0.410829667992 -0.402069700688 0.553879300485 -0.209893675952 0.565320526332 -0.228854420583 -0.470374677607 -0.359172954227
5.633394444000 -0.412778844240 -0.386382226862 0.552833988995 -0.198195109811 0.561055689754 -0.215992829669 -0.471502943871 -0.349505414694
5.634727555000 -0.402766419359 -0.380213887740 0.559786604613 -0.201679709451 0.573187364829 -0.208297329122 -0.460937722570 -0.351784183802
5.636060666000 -0.414905144177 -0.378137458741 0.554051504781 -0.196373405577 0.560432902645 -0.206662959153 -0.468671804773 -0.345754426471
5.637393777000 -0.399356868182 -0.386832168349 0.562974253896 -0.205933389517 0.577960546207 -0.213406897057 -0.458702793701 -0.356818179343
5.638726888000 -0.398838997803 -0.386560214790 0.564294429670 -0.202991676213 0.576466310401 -0.213630283394 -0.458666300963 -0.355065119480
5.640059999000 -0.395355185875 -0.390991681177 0.560101131790 -0.205098344062 0.585136984547 -0.216913354951 -0.460233198394 -0.358156679064
5.641393111000 -0.394609323965 -0.389402998755 0.576197343605 -0.204154451878 0.581761778733 -0.213432149856 -0.448223046055 -0.354365456912
5.642726222000 -0.395029096698 -0.377355049367 0.570709521790 -0.198039121440 0.580451213877 -0.201924774530 -0.451747598835 -0.346299162308
5.644059333000 -0.388042440322 -0.389014811508 0.570241864286 -0.202992431857 0.592165652469 -0.216872492082 -0.451870637718 -0.355999847241
5.645392444000 -0.397286339436 -0.380965529563 0.578556669295 -0.199688180231 0.579052424453 -0.204816294034 -0.448232479961 -0.348316675748
5.646725555000 -0.386825544835 -0.381039335668 0.579014761675 -0.200748856511 0.592145312888 -0.204840394208 -0.442902670864 -0.352483710786
5.648058666000 -0.394017504502 -0.388145611351 0.575366792411 -0.207871138993 0.587819408791 -0.212360443514 -0.445157272799 -0.357579292087
5.649391777000 -0.380017504769 -0.387366669084 0.589943556877 -0.203810287894 0.594734999802 -0.211112085056 -0.434994521000 -0.356187733655
5.650724888000 -0.388531776947 -0.385073685544 0.584320528265 -0.202021285790 0.589956172241 -0.209563486268 -0.435962512505 -0.352889600913
5.652057999000 -0.387319979812 -0.386673528046 0.592180951865 -0.200744138109 0.585684369962 -0.211656956288 -0.434613247880 -0.353441531332
5.653391111000 -0.377044465053 -0.393955018695 0.590240060027 -0.210541372991 0.606378132850 -0.220287867679 -0.431702265664 -0.365495416915
5.654724222000 -0.372172174761 -0.396979916686 0.588952872644 -0.221794805381 0.609835390877 -0.217912482382 -0.434225290233 -0.372750370294
5.656057333000 -0.384984388831 -0.386962454757 0.592967014348 -0.213081828894 0.593412084327 -0.208798726875 -0.432400808848 -0.362404435311
5.657390444000 -0.365451852717 -0.368525168315 0.598724599852 -0.188608457460 0.615209894670 -0.193004135990 -0.419770369788 -0.342882996274
5.658723555000 -0.375489879606 -0.387117827803 0.605052577337 -0.212113361203 0.601416358784 -0.203880633025 -0.420043325095 -0.360321201738
5.660056666000 -0.373616344604 -0.389835169323 0.598080766633 -0.209574806248 0.609375267489 -0.213175735313 -0.423750662309 -0.360687596175
5.661389777000 -0.373533049576 -0.380707103434 0.596355405107 -0.210455380403 0.605476700950 -0.199121194561 -0.426432012277 -0.357669456113
5.662722888000 -0.359825200915 -0.385082280026 0.609130336789 -0.206146229353 0.619964664200 -0.206627832007 -0.410920783911 -0.359679427636
5.664055999000 -0.371332217966 -0.393424154261 0.612195401030 -0.214905629167 0.607777467813 -0.218183171725 -0.413736914563 -0.364515140173
5.665389111000 -0.364072184609 -0.394605017702 0.618655219567 -0.214922648884 0.616585386699 -0.216457717318 -0.409657703157 -0.365466270395
5.666722222000 -0.361070052872 -0.403603466141 0.618532435978 -0.235515145752 0.624031385866 -0.224163858735 -0.408173723597 -0.383150804685
5.668055333000 -0.358883733091 -0.387417241057 0.611179178492 -0.213346118141 0.621833013673 -0.207552565591 -0.410243580796 -0.364499900952
5.669388444000 -0.349050139237 -0.383555089344 0.617395430362 -0.201947134198 0.629222000910 -0.204882555478 -0.404561610295 -0.356317063457
5.670721555000 -0.357235084136 -0.388252062606 0.610720642333 -0.212874513474 0.622168661438 -0.210183813157 -0.410503169636 -0.364443235818
5.672054666000 -0.349866904206 -0.393192235072 0.628201298079 -0.212025104477 0.630392261768 -0.216192113975 -0.395885612546 -0.367092911472
5.673387777000 -0.352249395440 -0.389861935946 0.617061864729 -0.214627794758 0.630232756225 -0.208504302327 -0.401791100157 -0.365580820816
5.674720888000 -0.352109411388 -0.399609258854 0.618170065790 -0.219106085476 0.634031850337 -0.221316530931 -0.401783855623 -0.370848299668
5.676053999000 -0.353940169541 -0.389379475935 0.614323835710 -0.226628469073 0.632657065450 -0.206424196526 -0.403940914119 -0.374331912359
5.677387111000 -0.344216832867 -0.397925442958 0.631936693263 -0.222337274820 0.638797587272 -0.218199072106 -0.392175426365 -0.376689180353
5.678720222000 -0.350337694439 -0.397670868621 0.626526959782 -0.226742003068 0.634865003383 -0.219043622334 -0.395630082196 -0.378213932310
5.680053333000 -0.346391824262 -0.394025634152 0.625440051492 -0.218593035894 0.637947841645 -0.217614427364 -0.394474047456 -0.374993222598
5.681386444000 -0.348265508525 -0.400814715487 0.627677119023 -0.230434112017 0.636887703857 -0.222336408418 -0.393593352738 -0.382082146805
5.682719555000 -0.337437384752 -0.405464334164 0.639672172084 -0.227789471562 0.645712804436 -0.226000652637 -0.384015858785 -0.383362903783
5.684052666000 -0.344643981109 -0.400189251689 0.633897554300 -0.229359573287 0.639323410252 -0.218608553810 -0.389071305891 -0.382379516025
5.685385777000 -0.336711360871 -0.406468353783 0.643991177569 -0.225189693251 0.647661422645 -0.228160457553 -0.379286549174 -0.383424554573
5.686718888000 -0.334392970350 -0.399428983851 0.640317481030 -0.227735485911 0.649353667617 -0.221874469780 -0.381803031451 -0.383215578938
5.688051999000 -0.335262455135 -0.400180708611 0.637000182548 -0.225442749872 0.650379067754 -0.222705647599 -0.382673555990 -0.381144431717
5.689385111000 -0.331962465356 -0.406235053618 0.642278488595 -0.230289955970 0.653058072573 -0.226355767526 -0.379129029964 -0.385481490043
5.690718222000 -0.336910972080 -0.404899991155 0.642638101525 -0.237554808781 0.649821512814 -0.221937243504 -0.378572155878 -0.389368572356
5.692051333000 -0.338400170622 -0.400765498933 0.635379927993 -0.230849958169 0.648719641874 -0.222892474455 -0.383035755159 -0.385778126577
5.693384444000 -0.336354847592 -0.411646458057 0.644929602790 -0.248414352044 0.649442785184 -0.230798773294 -0.380290573568 -0.399558865153
5.694717555000 -0.332495735889 -0.409455987162 0.642398191653 -0.238922938279 0.653704280813 -0.230726505032 -0.378081489622 -0.394458163507
5.696050666000 -0.334992693839 -0.415272030017 0.644847740671 -0.249365995273 0.653071813767 -0.233367297101 -0.378523932035 -0.400224568417
5.697383777000 -0.332933214587 -0.409359108816 0.640263829237 -0.243464644647 0.655215774181 -0.229547751978 -0.378919876846 -0.396259785257
5.698716888000 -0.333519455201 -0.419492817274 0.643769791248 -0.253886914379 0.654532488915 -0.238264572005 -0.378159869153 -0.405304414564
5.700049999000 -0.334161457722 -0.415042223789 0.644405254516 -0.251055637936 0.656121112808 -0.234148045442 -0.375713913080 -0.403087865350
5.701383111000 -0.329811515008 -0.417729290387 0.652716590314 -0.245746429330 0.657778733218 -0.237805479127 -0.370029063302 -0.401870598073
5.702716222000 -0.331053606332 -0.421535940382 0.645739492055 -0.253174581178 0.659996814113 -0.243037750781 -0.374166815996 -0.407967766801
5.704049333000 -0.331718722285 -0.420819542555 0.645176986670 -0.257091593726 0.660520356562 -0.239066505714 -0.373614330282 -0.408593755438
5.705382444000 -0.330364349493 -0.424155167421 0.649858642526 -0.258572550033 0.660297329389 -0.243821684885 -0.372434384271 -0.410622770078
5.706715555000 -0.331843976554 -0.420744649425 0.644311024001 -0.255353716049 0.661074680868 -0.241230093429 -0.373523433420 -0.408565139851
5.708048666000 -0.327189958522 -0.419400847378 0.647932993074 -0.251911720594 0.664931989328 -0.241706834243 -0.369654275973 -0.407441151144
5.709381777000 -0.326057292157 -0.425153520976 0.652594363960 -0.253444250989 0.665643469322 -0.246738028967 -0.366767409852 -0.410288418469
5.710714888000 -0.330814454030 -0.426249327217 0.649707462375 -0.265085224536 0.662720045833 -0.245585254755 -0.371119330154 -0.416104825105
5.712047999000 -0.330006950806 -0.426452286265 0.645887055101 -0.265164330228 0.664824875052 -0.247499441766 -0.373175436452 -0.416417193407
5.713381111000 -0.329764604132 -0.422946021382 0.645526932304 -0.258485010626 0.666232278775 -0.247108637767 -0.371743602191 -0.413698139013
5.714714222000 -0.322541980085 -0.425757807629 0.650841541897 -0.264261571968 0.669381661438 -0.250041451153 -0.368693167037 -0.417850475978
5.716047333000 -0.325555037316 -0.435672013939 0.649993400418 -0.273305520934 0.668124452676 -0.255902962573 -0.371073353872 -0.424093328200
5.717380444000 -0.328165969599 -0.433000717808 0.647607794968 -0.270717669797 0.669114693261 -0.254303328762 -0.369960550805 -0.422463752401
5.718713555000 -0.331309877533 -0.433300977373 0.641995749142 -0.273366516785 0.664340573698 -0.254854251410 -0.374238241462 -0.422545083299
5.720046666000 -0.329143603793 -0.431046502324 0.652559351608 -0.267961097065 0.666935328976 -0.253408920485 -0.365868146709 -0.422653510537
5.721379777000 -0.330407869179 -0.433867756230 0.643940450253 -0.270037802702 0.665896367537 -0.256380490921 -0.371138225809 -0.422201438715
5.722712888000 -0.329496733118 -0.436879260534 0.650369827772 -0.274928655084 0.666790541828 -0.258108663857 -0.367892492436 -0.426217703670
5.724045999000 -0.333431211281 -0.432770721604 0.642312067950 -0.273797732300 0.664872230529 -0.256354587912 -0.371485230958 -0.424878677670
5.725379111000 -0.323866894214 -0.433244162218 0.655256190462 -0.269446415647 0.670081259433 -0.255587253683 -0.362798176886 -0.423665916715
5.726712222000 -0.326932318437 -0.437639548430 0.651521211760 -0.281216834081 0.669416655161 -0.257748269961 -0.366007218847 -0.430414376880
5.728045333000 -0.327476535502 -0.437053481689 0.650960869127 -0.277759269151 0.669386648879 -0.259734668695 -0.365724930899 -0.429629364176
5.729378444000 -0.327756049107 -0.439298087807 0.651945200022 -0.280304904182 0.669155756521 -0.264297547965 -0.365415144511 -0.433336995300
5.730711555000 -0.330373923215 -0.439675443228 0.648314659193 -0.277094651751 0.668365455881 -0.264639529156 -0.368053958881 -0.431369600883
5.732044666000 -0.332246695567 -0.438572096771 0.646468057711 -0.278923423364 0.664457723557 -0.263105333760 -0.370133974121 -0.430373525458
5.733377777000 -0.334051455823 -0.439524408197 0.642937275373 -0.279350628847 0.664333587861 -0.265397453805 -0.372598315143 -0.430576952716
5.734710888000 -0.330384805223 -0.440736170365 0.645550041959 -0.281982513698 0.670654702907 -0.265057661089 -0.368392183594 -0.432842643790
5.736043999000 -0.330178495758 -0.444399213380 0.647113804578 -0.286083929133 0.669741653717 -0.269315529834 -0.368582732786 -0.436646183685
5.737377111000 -0.336197531207 -0.443806396516 0.640913115240 -0.284827548916 0.663837972699 -0.270992146250 -0.374862171279 -0.434869647207
5.738710222000 -0.332048933228 -0.441208248961 0.645375691133 -0.284049908676 0.666661555974 -0.265748486874 -0.369802605488 -0.432941457850
5.740043333000 -0.332470141519 -0.444316896513 0.644303585252 -0.287512735983 0.667126272180 -0.270005094856 -0.370130226500 -0.437661267425
5.741376444000 -0.333622419822 -0.442038059922 0.643810805271 -0.284652113722 0.665358152765 -0.268805825160 -0.371029484110 -0.434145108329
5.742709555000 -0.333622049356 -0.445522781206 0.642878702546 -0.287989793630 0.666742601668 -0.272241354924 -0.371866962357 -0.436847364748
5.744042666000 -0.333420803533 -0.443879550654 0.643682730151 -0.288885072248 0.666415901707 -0.270204172993 -0.371253816506 -0.436790042343
5.745375777000 -0.330218952853 -0.446365964718 0.645153436645 -0.289166808887 0.673511028872 -0.272381669096 -0.367396825116 -0.438288116545
5.746708888000 -0.336835652688 -0.447733021445 0.642723323284 -0.292761168598 0.662951114313 -0.277221102360 -0.372482903415 -0.442269673122
5.748041999000 -0.336201706873 -0.445851048936 0.640066387330 -0.289419804116 0.665582864558 -0.274867801413 -0.372282031950 -0.438446917489
5.749375111000 -0.335809081049 -0.443120589757 0.638949385237 -0.289771570772 0.665582855194 -0.270034277222 -0.373344926799 -0.435395244215
5.750708222000 -0.335659467548 -0.447732155675 0.641009212284 -0.294992480194 0.664174039480 -0.276372656056 -0.373671696720 -0.441830748429
5.752041333000 -0.339536512553 -0.446944188292 0.636699493488 -0.291612903747 0.661176790325 -0.277604763248 -0.376357692354 -0.439747394020
5.753374444000 -0.337254531703 -0.447188043184 0.638525225004 -0.292938995038 0.665558236174 -0.277377673154 -0.373979660710 -0.440170664840
5.754707555000 -0.340662246808 -0.449878289472 0.635409128824 -0.295687647563 0.661554978155 -0.281094180448 -0.376549512893 -0.442423077358
5.756040666000 -0.342987979966 -0.445503450113 0.633914350813 -0.292098356409 0.658493968909 -0.278089146213 -0.376505091507 -0.439368151263
5.757373777000 -0.343938866347 -0.448805992109 0.631490746676 -0.294494040331 0.658222139435 -0.283393048300 -0.380637143557 -0.442233905040
5.758706888000 -0.342255026650 -0.450603202511 0.633193008845 -0.296356563586 0.660126169765 -0.283067658173 -0.379362892948 -0.441795133339
5.760039999000 -0.343568713710 -0.446277486710 0.632530259941 -0.291508016744 0.656655774441 -0.278907454198 -0.379836474681 -0.437540881362
5.761373111000 -0.343282405480 -0.445978065531 0.630871142667 -0.293544742873 0.659313289694 -0.278151797388 -0.379008247367 -0.438369254074
5.762706222000 -0.343242812583 -0.445332953616 0.631530588539 -0.293402447712 0.658346907314 -0.278698915014 -0.379448447623 -0.439755986012
5.764039333000 -0.346178870307 -0.448071504660 0.628904918246 -0.297506691885 0.655088873771 -0.280591038589 -0.382276226304 -0.441915134707
5.765372444000 -0.346764522912 -0.446048577031 0.628414869186 -0.292964592489 0.652836289665 -0.281412539461 -0.383547468444 -0.439063631584
5.766705555000 -0.344901066349 -0.449497596872 0.628097523845 -0.295698891949 0.657954426464 -0.285163907934 -0.381321609198 -0.442243365406
5.768038666000 -0.348703002563 -0.443871656042 0.626420691776 -0.290336708981 0.649612429870 -0.280933184515 -0.385522561093 -0.437182704674
5.769371777000 -0.348631796887 -0.444750623201 0.625013584731 -0.292476559888 0.651687589565 -0.280993593088 -0.384783283943 -0.439196663914
5.770704888000 -0.349263061551 -0.447080262232 0.625990799221 -0.294270241752 0.649285379843 -0.283426205004 -0.385412913409 -0.441111872954
5.772037999000 -0.348303988046 -0.446057234497 0.627434067252 -0.292567087236 0.651158359369 -0.282530902344 -0.383827638353 -0.438646379862
5.773371111000 -0.351033269202 -0.444476580697 0.622155281616 -0.294223077965 0.650338227154 -0.280526894507 -0.386001047241 -0.438471059443
5.774704222000 -0.350204337133 -0.442118850526 0.622676066269 -0.290286376633 0.649797113374 -0.277900802915 -0.385645591987 -0.435269906559
5.776037333000 -0.350768084181 -0.444233839178 0.621559513276 -0.289331073942 0.648172056416 -0.284326589021 -0.387850087695 -0.437461607189
5.777370444000 -0.349649644917 -0.441739234032 0.622896839975 -0.289700986072 0.649366105002 -0.279410603496 -0.386494067347 -0.435976614798
5.778703555000 -0.353053511282 -0.440988693998 0.623510828284 -0.288194902202 0.642832176652 -0.277849955759 -0.386972052632 -0.432485998266
5.780036666000 -0.354276763860 -0.445116442833 0.621039486143 -0.295609577116 0.645691202752 -0.281223055284 -0.389239904411 -0.437760424097
5.781369777000 -0.362403076913 -0.436623422568 0.609791612363 -0.293744318443 0.637687166147 -0.272197316222 -0.395772052890 -0.433855485346
5.782702888000 -0.355282153578 -0.438883046605 0.616694673878 -0.290408926655 0.644440689532 -0.275327785187 -0.390672935340 -0.434179828147
5.784035999000 -0.360970906247 -0.439517338599 0.612304229551 -0.283358939297 0.634504095570 -0.282002067538 -0.398140851809 -0.430268978265
5.785369111000 -0.356184843322 -0.439199292560 0.617326978957 -0.287780361187 0.642388243832 -0.277617032601 -0.391492540922 -0.431531546763
5.786702222000 -0.360032975016 -0.432699932214 0.606721558764 -0.280656026793 0.639002450057 -0.274511002705 -0.397224084003 -0.426421195251
5.788035333000 -0.364967990417 -0.435479978182 0.605346646123 -0.287795430362 0.637252967433 -0.274890802862 -0.398416015634 -0.430676010243
5.789368444000 -0.363143159596 -0.436884420073 0.610653376201 -0.285398556235 0.634714864665 -0.277377572518 -0.397045314378 -0.430531555462
5.790701555000 -0.360176536360 -0.431746082484 0.609027346971 -0.281835200361 0.637595814394 -0.270847221679 -0.396575845767 -0.426023595767
5.792034666000 -0.361675271100 -0.435243176711 0.611528047700 -0.283133957754 0.634751989492 -0.274785656021 -0.396762068118 -0.427310487675
5.793367777000 -0.365459762822 -0.430518741441 0.606223247556 -0.284021881969 0.630130149269 -0.268732116792 -0.400117015057 -0.424859576459
5.794700888000 -0.365119601306 -0.429067047798 0.602606761417 -0.278382820593 0.632592305480 -0.270136041283 -0.402257971776 -0.422706992459
5.796033999000 -0.368435774358 -0.430470058297 0.601043360794 -0.280512646641 0.628225749112 -0.271775239913 -0.404629293649 -0.423456800257
5.797367111000 -0.366576295185 -0.430853409622 0.604175568747 -0.283162195152 0.631628247459 -0.270766944506 -0.401735712357 -0.425137564175
5.798700222000 -0.363458328047 -0.430842856168 0.606668329457 -0.279456951467 0.634136408516 -0.268887840836 -0.398712254613 -0.421386549343
5.800033333000 -0.369646737946 -0.427253560401 0.602123700001 -0.280665940132 0.627842429475 -0.267002502334 -0.403270083920 -0.421839259741
5.801366444000 -0.366274638457 -0.421341893641 0.602186379389 -0.269506699304 0.628086060286 -0.263007099907 -0.402945713427 -0.414197607339
5.802699555000 -0.371916580697 -0.421644862090 0.595339139269 -0.273343763243 0.624613672664 -0.262601806257 -0.408298228607 -0.415237512657
5.804032666000 -0.369118487638 -0.423562902323 0.601505552553 -0.274012807743 0.626389629749 -0.263853707621 -0.405068297091 -0.416689174714
5.805365777000 -0.372455355850 -0.420702194399 0.597050923324 -0.270374816358 0.621720717545 -0.262614198145 -0.408462169465 -0.413334159171
5.806698888000 -0.370908967920 -0.418786900465 0.597137813447 -0.267206973398 0.622520444067 -0.261149314564 -0.408291397190 -0.411590060690
5.808031999000 -0.370883471138 -0.415836722915 0.599451685981 -0.268670962123 0.622951210398 -0.255741725120 -0.405991257807 -0.410278966636
5.809365111000 -0.371717482992 -0.416076974325 0.597086720514 -0.267936497697 0.623464991191 -0.257361190969 -0.406722722001 -0.410028882957
5.810698222000 -0.368557721809 -0.413948133761 0.597923395902 -0.260131401029 0.624343091416 -0.256186535227 -0.406315841021 -0.405520073604
5.812031333000 -0.370393925718 -0.416735194162 0.600169449952 -0.264846159006 0.623962868702 -0.256409656033 -0.405802829548 -0.407349113515
5.813364444000 -0.372470979797 -0.414314679190 0.598037562734 -0.265059920907 0.620759370754 -0.253742428909 -0.408251887357 -0.406194891128
5.814697555000 -0.372796350514 -0.410994520838 0.599711848355 -0.258786470496 0.618614154087 -0.252114379663 -0.407815274691 -0.402452496998
5.816030666000 -0.370227692370 -0.409917086948 0.597657720016 -0.257401815078 0.623647319610 -0.251744873964 -0.406955689188 -0.402052622519
5.817363777000 -0.372480842522 -0.408717244920 0.596954117345 -0.256745938420 0.620121792801 -0.249723416278 -0.408585392292 -0.399688144059
5.818696888000 -0.373591090034 -0.405950441584 0.593949707308 -0.255536720191 0.619222467064 -0.247779364809 -0.410238896018 -0.397604979629
5.820029999000 -0.373078529390 -0.404290846915 0.593729953208 -0.253541130382 0.619284380959 -0.244255611057 -0.409936751819 -0.395466094889
5.821363111000 -0.371069898738 -0.402433169093 0.596695583935 -0.250144606238 0.619804806285 -0.243601924168 -0.408580334357 -0.393274535536
5.822696222000 -0.373020547146 -0.403816666913 0.597046357214 -0.251679844910 0.617833410399 -0.245599077382 -0.409569544588 -0.394032273745
5.824029333000 -0.373442468208 -0.399439375118 0.596901967891 -0.247957473422 0.617778490334 -0.240224918081 -0.408106248437 -0.390512565712
5.825362444000 -0.371662893692 -0.399356826842 0.597387866497 -0.250378387332 0.620521841307 -0.238577619794 -0.407396383043 -0.391102276718
5.826695555000 -0.374559550700 -0.399779424582 0.596078297019 -0.249851781313 0.617141577753 -0.241893437123 -0.410659096088 -0.391820825028
5.828028666000 -0.374701038782 -0.390943809900 0.592827481099 -0.245059030194 0.616197633294 -0.232059204486 -0.411460215348 -0.385856889488
5.829361777000 -0.370700751293 -0.392218945819 0.597958527664 -0.242444200449 0.619709601653 -0.232350854752 -0.407135519823 -0.383992159183
5.830694888000 -0.369652351565 -0.393057107610 0.598387487840 -0.244209718643 0.621691828412 -0.232503214117 -0.406785880912 -0.385544215551
5.832027999000 -0.368553877810 -0.390824065779 0.599865587023 -0.236486344957 0.621256637835 -0.231479302549 -0.405417815720 -0.379476068452
5.833361111000 -0.369982499051 -0.387479336531 0.598317022471 -0.234384157169 0.619573565033 -0.227664654490 -0.406202562063 -0.376803809731
5.834694222000 -0.368279507109 -0.389667832760 0.602601105441 -0.237226375226 0.620060991132 -0.231462490500 -0.404850214182 -0.378934433420
5.836027333000 -0.367757542620 -0.386380957107 0.600664261672 -0.234355570985 0.623239560354 -0.225612812930 -0.404912399875 -0.376006734630
5.837360444000 -0.367100547204 -0.386628965576 0.602179556965 -0.234464875951 0.621113960718 -0.226734109089 -0.404894448742 -0.376350651316
5.838693555000 -0.367151608901 -0.381853280616 0.600927135380 -0.233233590737 0.622010978044 -0.221286263400 -0.403266822892 -0.374541370913
5.840026666000 -0.364747136896 -0.383789938050 0.603228310648 -0.234190151203 0.624112158074 -0.222840328945 -0.403115790571 -0.375272926225
5.841359777000 -0.361452358349 -0.382843658428 0.604858498879 -0.231960822856 0.627527295195 -0.221194647559 -0.400610887756 -0.372869946251
5.842692888000 -0.365315549138 -0.382272795024 0.602164719157 -0.232025830517 0.624031099765 -0.221302120858 -0.403729157089 -0.372567916387
5.844025999000 -0.359623264706 -0.374489663259 0.608457970165 -0.222609115028 0.628424878037 -0.213658409190 -0.396392618405 -0.365201990345
5.845359111000 -0.359145195664 -0.371699902400 0.609601919489 -0.220336874730 0.626849546872 -0.212401296215 -0.397042380450 -0.363090284377
5.846692222000 -0.359105282355 -0.373769119577 0.608966247048 -0.226036408382 0.627368324199 -0.210861900283 -0.397010022241 -0.365473679243
5.848025333000 -0.357062090508 -0.372335135639 0.606405304981 -0.221578484130 0.631505510806 -0.211170051579 -0.397525303242 -0.363430364539
5.849358444000 -0.352481248193 -0.376842942049 0.617290810286 -0.222652806393 0.633605169178 -0.214236547571 -0.391206048702 -0.364191229027
5.850691555000 -0.357036824374 -0.365775169539 0.610916048047 -0.223257103121 0.627249216832 -0.201111918518 -0.393990426272 -0.362427193632
5.852024666000 -0.348242092211 -0.372093482634 0.614856703033 -0.219627643239 0.639010655248 -0.211251151331 -0.389719347696 -0.361940099860
5.853357777000 -0.347579264421 -0.369929155922 0.617928032493 -0.222485714450 0.638428082574 -0.205222947169 -0.388207915550 -0.362098938931
5.854690888000 -0.355399805929 -0.373105526133 0.613951730213 -0.222097673461 0.633614198101 -0.214621136331 -0.392295265412 -0.363564635923
5.856023999000 -0.348626634154 -0.375898890940 0.617471051443 -0.223425891969 0.638637879926 -0.211375727566 -0.389307516593 -0.363361559048
5.857357111000 -0.350554804638 -0.368531342123 0.622987333459 -0.217393294916 0.632527254761 -0.207997214730 -0.385379988647 -0.357284378050
5.858690222000 -0.349543505718 -0.372823291978 0.617679390471 -0.221492888776 0.638919400710 -0.209500370737 -0.387711378233 -0.359118612985
5.860023333000 -0.336122668538 -0.375542488473 0.628885712901 -0.222970063712 0.653142416965 -0.212974203372 -0.376118995850 -0.365950648120
5.861356444000 -0.345670621596 -0.369111197408 0.620961520971 -0.214869838789 0.641481009835 -0.207464148843 -0.384604046990 -0.356388015638
5.862689555000 -0.344034573732 -0.369980622674 0.626297071361 -0.218262093928 0.641078389806 -0.208334634876 -0.380642135336 -0.358579467212
5.864022666000 -0.345222926282 -0.370454696028 0.623240816061 -0.216619414774 0.641941059701 -0.209373689308 -0.383906452282 -0.357249508388
5.865355777000 -0.341422719707 -0.364680064573 0.624871022761 -0.211428071266 0.643574341890 -0.202911632161 -0.382536909906 -0.351950392059
5.866688888000 -0.341619302944 -0.368818042229 0.629209987660 -0.218032310659 0.642969989705 -0.207452036795 -0.379094191109 -0.358333150550
5.868021999000 -0.330169402863 -0.377154410893 0.636398216873 -0.222857298627 0.657642837762 -0.213321306214 -0.369153908122 -0.361833939315
5.869355111000 -0.330912422525 -0.368294582897 0.634533328260 -0.215103146545 0.656272862222 -0.204042007463 -0.371065698639 -0.354299879619
5.870688222000 -0.337745241401 -0.369021889018 0.630358329465 -0.219750828906 0.645747801291 -0.204144667004 -0.378035883786 -0.358132842239
5.872021333000 -0.333430012901 -0.364921394149 0.633741089215 -0.214055336690 0.650494002263 -0.202515641201 -0.373235545416 -0.353810443272
5.873354444000 -0.327402204870 -0.367723390890 0.639673967986 -0.218613845727 0.655637494142 -0.201926176515 -0.368132197226 -0.356683983769
5.874687555000 -0.322845146085 -0.369037226375 0.636676245853 -0.214546519443 0.664932171714 -0.203919496191 -0.367847267648 -0.355334508818
5.876020666000 -0.322568266560 -0.363290212582 0.644327818931 -0.215353710445 0.660712851652 -0.198204742406 -0.360472159415 -0.354856225105
5.877353777000 -0.318837830346 -0.369516152387 0.644218239041 -0.222934496488 0.665978790657 -0.200963965808 -0.362493367042 -0.360277718263
5.878686888000 -0.321623282872 -0.371176004161 0.648026133924 -0.215482978320 0.662914826948 -0.208337785943 -0.360394392415 -0.356793234200
5.880019999000 -0.323932730471 -0.365442559278 0.643923805556 -0.216365472915 0.659148146647 -0.200364891260 -0.364559812262 -0.355433208697
5.881353111000 -0.323234670210 -0.373288215880 0.644144129071 -0.219738140148 0.661631830231 -0.210754226533 -0.364071905466 -0.360793286643
5.882686222000 -0.322049462607 -0.373276263792 0.643034385383 -0.216599939582 0.664109401885 -0.211259665814 -0.361792897565 -0.358306202191
5.884019333000 -0.310570087160 -0.372493852015 0.655618557751 -0.223087653633 0.673201512459 -0.203441163436 -0.351277500436 -0.359707820741
5.885352444000 -0.314087770831 -0.375192090079 0.649904899136 -0.223915575601 0.670980307669 -0.208516034941 -0.356648069755 -0.361675659223
5.886685555000 -0.316129697806 -0.375297733108 0.651300588462 -0.221078372390 0.669685742229 -0.210625054604 -0.354328785807 -0.361139513361
5.888018666000 -0.307243049489 -0.369971744700 0.660440539083 -0.218643390276 0.676162196492 -0.201268293541 -0.346425513928 -0.357699213584
5.889351777000 -0.309382910807 -0.375451454067 0.655550277091 -0.225260304793 0.675692505556 -0.208126101848 -0.350879060598 -0.363650223381
5.890684888000 -0.301986533158 -0.378711328862 0.661168033408 -0.225226908405 0.684363771071 -0.210050011633 -0.344219861304 -0.364110119858
5.892017999000 -0.303612485832 -0.380684048813 0.658824029254 -0.225489737007 0.682699440860 -0.213824094178 -0.346098142661 -0.365074246117
5.893351111000 -0.305672257580 -0.382501494882 0.661530072886 -0.227256022347 0.681341467975 -0.217514643678 -0.343051500156 -0.368336131856
5.894684222000 -0.308051786673 -0.379943694857 0.655492181658 -0.230497632090 0.679093846609 -0.215924285481 -0.348884987086 -0.371528629913
5.896017333000 -0.300186882911 -0.377532819820 0.664849034680 -0.222765089716 0.684378595148 -0.211612961888 -0.340870317046 -0.363750986725
5.897350444000 -0.298428008350 -0.379905118747 0.665367003949 -0.227104822704 0.687087418229 -0.211379076936 -0.338149287144 -0.365670347591
5.898683555000 -0.297532603723 -0.387167176161 0.662595400843 -0.233759508313 0.691010784125 -0.218146480655 -0.341858889013 -0.371137112989
5.900016666000 -0.299750567803 -0.391514064239 0.661115082579 -0.234076681139 0.689640326029 -0.223530591227 -0.341006544102 -0.372863156014
5.901349777000 -0.299793153310 -0.392311785489 0.664916811831 -0.239689608935 0.689888919965 -0.222019562804 -0.338370100945 -0.376289013313
5.902682888000 -0.297626625781 -0.380481211812 0.668539742082 -0.226755777683 0.687137869287 -0.213927810789 -0.336267946236 -0.368196772301
5.904015999000 -0.293885939434 -0.388527298570 0.666346144485 -0.238380256792 0.693467730553 -0.218405285850 -0.337435416695 -0.375287009898
5.905349111000 -0.292543720918 -0.387750752371 0.672434424553 -0.236140715993 0.694587772523 -0.217085363774 -0.330322017794 -0.373325430915
5.906682222000 -0.302427675942 -0.393609471884 0.667750423370 -0.243331715159 0.686123512581 -0.228351748909 -0.335144696368 -0.381802137546
5.908015333000 -0.299810521180 -0.397992697694 0.667328425881 -0.240562440791 0.691168415399 -0.233769474116 -0.335304941986 -0.382604395104
5.909348444000 -0.288629453656 -0.395724782758 0.668547617883 -0.243544456572 0.698706561528 -0.223612783906 -0.332982800269 -0.379264308789
5.910681555000 -0.299294997817 -0.399295031720 0.665957885944 -0.242988810653 0.691103807838 -0.232871466777 -0.336011926531 -0.382005012946
5.912014666000 -0.289716179954 -0.401590995171 0.673460067049 -0.248636163301 0.700174400677 -0.231987784650 -0.328192116339 -0.385673963462
5.913347777000 -0.285974987185 -0.395195145008 0.674785929920 -0.249989822499 0.698943664655 -0.224444921106 -0.330901872948 -0.385518760355
5.914680888000 -0.290756315293 -0.395324231095 0.673389611741 -0.245602502196 0.696015239862 -0.226169330219 -0.328346576783 -0.383495013224
5.916013999000 -0.293237934024 -0.399934802538 0.674968065860 -0.246384252549 0.692809222936 -0.232829694340 -0.328842763518 -0.386102157101
5.917347111000 -0.291405297436 -0.396546640160 0.669543834629 -0.245291433378 0.695640792053 -0.229372604190 -0.331615493267 -0.385088712301
5.918680222000 -0.287964487422 -0.403296482950 0.665873104076 -0.251394557251 0.701089780467 -0.232780197541 -0.331835204765 -0.386390898531
5.920013333000 -0.293788670317 -0.396815738531 0.676002238491 -0.241737651967 0.692870365803 -0.235669746717 -0.325155170106 -0.387287491455
5.921346444000 -0.293138331344 -0.407658760661 0.661374170962 -0.257399964125 0.694893198698 -0.238476303156 -0.337875788267 -0.391407197506
5.922679555000 -0.280944482927 -0.410269102633 0.676772755694 -0.255841081172 0.708233896270 -0.238752613414 -0.322964712060 -0.393450284370
5.924012666000 -0.272892916274 -0.415038613173 0.687271193243 -0.266731266881 0.714627094445 -0.244404149803 -0.319065834016 -0.404249485236
5.925345777000 -0.290690236575 -0.411843069149 0.672577761679 -0.259315619590 0.698441676532 -0.245939203806 -0.327574263189 -0.398282219495
5.926678888000 -0.281970574734 -0.411846185717 0.681217187555 -0.264845172902 0.706554992326 -0.241198152194 -0.322336670399 -0.401381143474
5.928011999000 -0.280808739726 -0.414480370118 0.680791210715 -0.269048456235 0.708678702067 -0.244837708912 -0.321365678726 -0.404632150517
5.929345111000 -0.278987178593 -0.411820918764 0.689627362510 -0.257204694278 0.711473811404 -0.245016185656 -0.310363721456 -0.400961203707
5.930678222000 -0.286541177071 -0.418847279944 0.671870359584 -0.275624271530 0.702245802300 -0.250047826340 -0.329574984423 -0.410024522525
5.932011333000 -0.282004160669 -0.418603097440 0.683314410852 -0.266639734323 0.709586741979 -0.249457509740 -0.315348216312 -0.405823352239
5.933344444000 -0.282233769893 -0.418900199072 0.678221249446 -0.267580262392 0.710359696889 -0.248727889737 -0.318642830324 -0.404935727970
5.934677555000 -0.279404247787 -0.414836321986 0.685315683500 -0.263570706608 0.711331878786 -0.250894892284 -0.314098435553 -0.407247893314
5.936010666000 -0.286655142413 -0.419811303126 0.675439500108 -0.267723189601 0.706276621689 -0.245652492983 -0.320570715511 -0.402559385141
5.937343777000 -0.286599659834 -0.420756668466 0.675618019387 -0.271793734908 0.702067706028 -0.252740427814 -0.324590060377 -0.410108870015
5.938676888000 -0.284506200386 -0.421189138253 0.679177801238 -0.271348541802 0.706225444111 -0.254360624370 -0.318876519541 -0.410184443992
5.940009999000 -0.274376952035 -0.424091567791 0.690477785658 -0.286634064400 0.711069682179 -0.257121604629 -0.317753756400 -0.424644125032
5.941343111000 -0.282351136049 -0.422327914218 0.680853422947 -0.269800265918 0.710239461033 -0.255098983972 -0.315181530843 -0.410702853656
5.942676222000 -0.280571940319 -0.425050153785 0.678991007088 -0.275097256152 0.711636014114 -0.256675191309 -0.319035297738 -0.413421610371
5.944009333000 -0.280127132876 -0.427169059829 0.691869962684 -0.280159359495 0.710517150897 -0.262015538563 -0.310605095405 -0.424093287655
5.945342444000 -0.275680789256 -0.428811714204 0.691724356780 -0.285774922528 0.711690968339 -0.259620836625 -0.313912070239 -0.425609286165
5.946675555000 -0.278214213361 -0.428496439565 0.686294800995 -0.284934412381 0.710393048231 -0.259200181549 -0.316096551518 -0.422028781670
5.948008666000 -0.272041185076 -0.437784751724 0.691562277386 -0.299773667901 0.714694249456 -0.278018471916 -0.318283407192 -0.440418986740
5.949341777000 -0.276912593392 -0.437215750731 0.679314580525 -0.295137462661 0.712178331517 -0.267330420930 -0.322176053686 -0.426545568044
5.950674888000 -0.278191858584 -0.425716620847 0.693345419614 -0.283082540747 0.714156994163 -0.260533386954 -0.308056717336 -0.427547697865
5.952007999000 -0.280379437763 -0.428801042435 0.683062822711 -0.283753780124 0.712064157026 -0.261004147388 -0.313495666821 -0.423550077213
5.953341111000 -0.274789132016 -0.430863856394 0.686751490576 -0.285437571294 0.718978161683 -0.265026988434 -0.310627294157 -0.426374467116
5.954674222000 -0.280668902793 -0.434256284699 0.680153840798 -0.285873051009 0.713563881530 -0.266798318862 -0.314159360028 -0.422906020433
5.956007333000 -0.280184986832 -0.439979285490 0.681105257164 -0.292042861699 0.713950788960 -0.269049655424 -0.314530791441 -0.427727229125
5.957340444000 -0.282655601183 -0.437763538700 0.681473186030 -0.288929988159 0.710764665881 -0.269786388841 -0.314547068521 -0.428399708410
5.958673555000 -0.280796254206 -0.442326242024 0.685497715779 -0.300755308456 0.713457725071 -0.272799925547 -0.314377501805 -0.436853819076
5.960006666000 -0.277413472861 -0.441234445782 0.689844482684 -0.297515356825 0.715587449803 -0.274260193615 -0.310856363668 -0.437399109425
5.961339777000 -0.281412715725 -0.442523346699 0.672472108190 -0.300313065833 0.712053384790 -0.270916926267 -0.322168673785 -0.431072990731
5.962672888000 -0.284287043891 -0.438754831276 0.674838565588 -0.293239577076 0.707982614426 -0.270835179571 -0.318908299905 -0.429554973885
5.964005999000 -0.280013496818 -0.441857476199 0.679277584211 -0.293545502519 0.716446601808 -0.271893490662 -0.312924726966 -0.431432568716
5.965339111000 -0.286129084228 -0.437324966191 0.684623209122 -0.290806735907 0.712774330516 -0.269902434671 -0.307301853420 -0.433045190029
5.966672222000 -0.281554027090 -0.446535237520 0.679369794984 -0.303166033810 0.712431531377 -0.275872036386 -0.315537998653 -0.437911664198
5.968005333000 -0.276710707090 -0.444263191081 0.682380381191 -0.299173885879 0.718732010475 -0.278301176484 -0.312972973290 -0.438925918808
5.969338444000 -0.280535146701 -0.449784744481 0.681094236886 -0.310561787838 0.713020208800 -0.282975516366 -0.316686464790 -0.447188457370
5.970671555000 -0.281176584145 -0.449379698636 0.680455640903 -0.313411084502 0.713546199373 -0.278851308836 -0.317159107866 -0.446315547514
5.972004666000 -0.280959569723 -0.449422308123 0.682566282981 -0.310940519072 0.713187312290 -0.282774237305 -0.316511757646 -0.448073906452
5.973337777000 -0.287138558350 -0.449933842522 0.678958284267 -0.305910122481 0.712258584616 -0.281338644194 -0.311717747847 -0.441947538956
5.974670888000 -0.286008358366 -0.444965118153 0.687018309912 -0.301602893407 0.716508591114 -0.282442569610 -0.303954405654 -0.446243002918
5.976003999000 -0.285773575501 -0.446785315197 0.680429671116 -0.306707111643 0.711215660283 -0.280239426803 -0.313048169367 -0.445358865635
5.977337111000 -0.284580745534 -0.451293801720 0.679254052351 -0.302546922258 0.718237074721 -0.279071720947 -0.307052719268 -0.437185604415
5.978670222000 -0.278807559477 -0.445480590828 0.685994502817 -0.305230117668 0.718244355410 -0.274662465559 -0.307020051642 -0.439492157007
5.980003333000 -0.292150552703 -0.451087053609 0.680819162867 -0.306848464405 0.713680708374 -0.284826179442 -0.306010652039 -0.444539238283
5.981336444000 -0.273728870361 -0.456480918397 0.692395011029 -0.316039282869 0.723681581763 -0.286951578127 -0.305538386834 -0.453141750133
5.982669555000 -0.286496896629 -0.454886414029 0.675455808697 -0.306506945482 0.715171926990 -0.282329564723 -0.312097465482 -0.439253925312
5.984002666000 -0.285102777958 -0.458104835920 0.682095478431 -0.312765711659 0.716497416043 -0.287030226612 -0.308446736106 -0.445668532564
5.985335777000 -0.285020892054 -0.451849053066 0.681315458775 -0.311117659372 0.711136983644 -0.281412435760 -0.311485705232 -0.445688483866
5.986668888000 -0.276260001002 -0.458068234063 0.687179454718 -0.316775707328 0.724293124337 -0.283573986256 -0.303565725358 -0.450391041213
5.988001999000 -0.280708549473 -0.462952466807 0.685119499761 -0.321128501717 0.720340062759 -0.289277336356 -0.308479578969 -0.450088293896
5.989335111000 -0.275196612863 -0.464203384097 0.687048307903 -0.327779558812 0.720973103838 -0.287937448145 -0.309284040385 -0.456302457683
5.990668222000 -0.280408279683 -0.462483275238 0.690816649946 -0.324340216602 0.720608734791 -0.298241059577 -0.305066658472 -0.460163703938
5.992001333000 -0.288026596580 -0.456048841711 0.675663548187 -0.308747944327 0.717801908413 -0.284227427700 -0.307096800690 -0.443452294915
5.993334444000 -0.286623627646 -0.450936459931 0.681797017350 -0.314447534875 0.712377747656 -0.284806180905 -0.310836079809 -0.450394060614
5.994667555000 -0.287940403215 -0.462310305271 0.680961213384 -0.332057809146 0.706638072664 -0.298701722928 -0.315300576581 -0.467406299964
5.996000666000 -0.292390443139 -0.463669952578 0.676966400170 -0.322578740580 0.714528331217 -0.295823863909 -0.309112647225 -0.455255245367
5.997333777000 -0.280005128968 -0.471406854923 0.682488773503 -0.331728330218 0.717414776403 -0.294938163457 -0.312619845329 -0.457877510161
5.998666888000 -0.276342783168 -0.470394123217 0.688135145443 -0.333784652080 0.725946087685 -0.293968965553 -0.306594984985 -0.460052658475
6.000000000000 -0.294523134076 -0.465846447415 0.678020667342 -0.328774354828 0.712775231462 -0.302261946299 -0.306698025987 -0.461618288829
