# GHZ S RI R 50.000000000000
0.001000000000 0.007893423292 0.003680748655 0.990424636046 0.000102412624 0.987956712050 0.001497756260 0.008200596716 0.003619486921
0.002333111000 0.007916354401 0.006082725874 0.991441295224 -0.004881196708 0.991275975553 -0.005088821202 0.008199099123 0.006293093329
0.003666222000 0.007577646022 0.009764234030 0.991096069230 -0.009237087592 0.990469361579 -0.009263381799 0.008120526222 0.009940138251
0.004999333000 0.007459899390 0.013552482863 0.990715729138 -0.013809042171 0.989907944216 -0.012843479773 0.007928483283 0.013433229696
0.006332444000 0.007658360842 0.017309629988 0.990372005739 -0.017745421604 0.989869076402 -0.017292548418 0.008174428634 0.017318218039
0.007665555000 0.007840750529 0.021056703588 0.990035554945 -0.021954536233 0.989579688659 -0.021273538655 0.008501937952 0.020917972741
0.008998666000 0.008165838783 0.024759373145 0.989507001683 -0.025720732288 0.989301696712 -0.025467179847 0.008878153888 0.024672737265
0.010331777000 0.008564124667 0.028381230377 0.989564797037 -0.029756953502 0.988999171901 -0.029479339678 0.009319933086 0.028259788625
0.011664888000 0.008957256643 0.032118773924 0.988900497996 -0.033873443887 0.988613598693 -0.033781212864 0.009633135189 0.031849257749
0.012998000000 0.009417227657 0.035660043060 0.988609807635 -0.038063576940 0.988113273221 -0.038216651424 0.010160747017 0.035612811042
0.014331111000 0.009808867813 0.039425949753 0.988132762013 -0.042054153231 0.987683758432 -0.041885033128 0.010722961426 0.039351051315
0.015664222000 0.010309144011 0.042979268917 0.987866019679 -0.046348017278 0.987243641677 -0.046373619800 0.011316842247 0.042810246056
0.016997333000 0.010876949011 0.046684933607 0.987325858989 -0.050385843131 0.986738182939 -0.050553320222 0.011785945323 0.046379184077
0.018330444000 0.011470097846 0.050226435587 0.986953764664 -0.054339882221 0.986418747598 -0.054341961053 0.012387891442 0.050053995463
0.019663555000 0.011974280143 0.053872589015 0.986122928211 -0.058349660093 0.985721103643 -0.057786657174 0.012997766579 0.053624252895
0.020996666000 0.012652392619 0.057547031961 0.985858196138 -0.062142838812 0.985039026683 -0.061842106085 0.013649643188 0.057172869025
0.022329777000 0.013385173722 0.061048417160 0.985200439872 -0.066013210161 0.984551562152 -0.066447337719 0.014305112775 0.060844118452
0.023662888000 0.014018278005 0.064644096528 0.984529988844 -0.069882350242 0.984021235331 -0.070045769963 0.015076288112 0.064339548809
0.024996000000 0.014737929343 0.068258070459 0.983891629669 -0.073819749763 0.983325277865 -0.073969550606 0.015737821002 0.067930969496
0.026329111000 0.015737970792 0.071838032285 0.983527127585 -0.079081525364 0.983346778482 -0.078104160378 0.017174633364 0.071402222446
0.027662222000 0.016480503151 0.075378501307 0.982703838590 -0.082658067969 0.982534562889 -0.082152727307 0.018052303259 0.075023399996
0.028995333000 0.017386259561 0.078917641103 0.981665227848 -0.086548720977 0.981424401099 -0.086015334909 0.018698427557 0.078430651424
0.030328444000 0.018120348308 0.082354234062 0.980845059279 -0.090144353057 0.980311541130 -0.089886981580 0.019412741259 0.082061883554
0.031661555000 0.019125095497 0.085864237493 0.980209377835 -0.094187259662 0.979649703329 -0.093817230583 0.020509819565 0.085448487809
0.032994666000 0.019912883866 0.089298445120 0.979533461321 -0.098334730110 0.978852113228 -0.097742983538 0.021530877857 0.088872290496
0.034327777000 0.020728721434 0.093158918874 0.979215200864 -0.102335600983 0.978101926258 -0.102317846683 0.022478060080 0.092583835515
0.035660888000 0.021775768206 0.096194044930 0.977884357246 -0.106456511072 0.977648095386 -0.105348609709 0.023678968509 0.095635592490
0.036994000000 0.022748338347 0.099707538351 0.976917288858 -0.110339163332 0.976478173908 -0.109279465608 0.024756425717 0.099067310869
0.038327111000 0.023840364490 0.103083400966 0.976046870395 -0.114101456596 0.976333316261 -0.112867152134 0.025885353334 0.102587813120
0.039660222000 0.024790134682 0.106615061867 0.975142259094 -0.117773208677 0.975069915544 -0.117302001472 0.027010816579 0.106062098134
0.040993333000 0.025900892220 0.110033828193 0.974127011809 -0.121834168159 0.973819907676 -0.120738200934 0.028080935354 0.109554657026
0.042326444000 0.027085409234 0.113419857766 0.973233266104 -0.125483991134 0.973346452494 -0.124553116446 0.029356385620 0.112838648450
0.043659555000 0.028217077105 0.116806306664 0.972099561234 -0.129001511442 0.971823695069 -0.128190149175 0.030492698213 0.116276000711
0.044992666000 0.029290835479 0.120162265159 0.971083884583 -0.132367063573 0.970612313229 -0.132131892538 0.031678725494 0.119686683681
0.046325777000 0.030486204057 0.123557888874 0.969811967672 -0.136452860757 0.969472111476 -0.135648680892 0.032896035183 0.123053918092
0.047658888000 0.031687979046 0.126860150583 0.968702218556 -0.140160189481 0.968581584486 -0.139677875374 0.034166473392 0.126455942385
0.048992000000 0.032974597172 0.130217340225 0.967594424602 -0.143768267398 0.967319989597 -0.143478023413 0.035326974526 0.129810367243
0.050325111000 0.034200342488 0.133472270560 0.966359592154 -0.147933071966 0.966101921803 -0.146807161918 0.036525769042 0.133189849198
0.051658222000 0.035467487160 0.136768443728 0.965453412901 -0.151575674365 0.964944083090 -0.150566815454 0.038040517895 0.136452312972
0.052991333000 0.036774068965 0.140048667543 0.964236644940 -0.155263513774 0.963957585543 -0.154573783545 0.039341025372 0.139699179120
0.054324444000 0.038092795203 0.143397180240 0.962811493611 -0.159069628894 0.962661057344 -0.158304927747 0.040643038533 0.143011871830
0.055657555000 0.039390480651 0.146706759393 0.961838860929 -0.162505657265 0.961347771791 -0.161755517774 0.042124842021 0.146311770411
0.056990666000 0.040688560877 0.149965971368 0.960439576420 -0.166276524814 0.960044792533 -0.165217717942 0.043333123021 0.149519719849
0.058323777000 0.042076451307 0.153148324720 0.959279827759 -0.169771245276 0.958878443804 -0.169047303512 0.044745688743 0.152756283642
0.059656888000 0.043408624567 0.156257015342 0.957980111394 -0.173634307589 0.957314690886 -0.172689856278 0.046115465901 0.155966551925
0.060990000000 0.044833450094 0.159224691706 0.956138974938 -0.177008459965 0.955923567838 -0.176171555567 0.047391853135 0.158855129389
0.062323111000 0.046552593161 0.162198990229 0.954326140462 -0.180772106182 0.953889443468 -0.179563097594 0.049506432529 0.161637202423
0.063656222000 0.047965381612 0.165638077665 0.953478627695 -0.184351380648 0.952964059023 -0.183249990536 0.050725708324 0.165186114846
0.064989333000 0.049421277911 0.168825639047 0.951984565793 -0.187891778363 0.951546138667 -0.186790972672 0.052168654922 0.168417975668
0.066322444000 0.051000495830 0.171871769086 0.950584110202 -0.191187340295 0.949965639403 -0.190463731459 0.053760584104 0.171420313273
0.067655555000 0.052503798144 0.174813963160 0.949066549026 -0.195059150488 0.948691880315 -0.193585023150 0.055312429548 0.174447521129
0.068988666000 0.054064444378 0.177821192107 0.947485270127 -0.198174556422 0.946972879561 -0.197329951771 0.056866196642 0.177407256652
0.070321777000 0.055654281724 0.180826845980 0.945669750644 -0.201517059903 0.945563718236 -0.200613564108 0.058507305987 0.180423322621
0.071654888000 0.057238351620 0.183819127387 0.944101929950 -0.205162383558 0.943807570504 -0.204427158011 0.060138612410 0.183373365187
0.072988000000 0.058821938490 0.186847303230 0.942586185899 -0.208354155376 0.942228367680 -0.207638079661 0.061761873236 0.186255973819
0.074321111000 0.060444628387 0.189796796251 0.941030016505 -0.211750072317 0.940556885746 -0.211135370114 0.063379471623 0.189223600911
0.075654222000 0.062082216675 0.192599751483 0.939297559282 -0.215104134452 0.939032593359 -0.213920193451 0.065151759731 0.192108946929
0.076987333000 0.063815018412 0.195531006747 0.937856604840 -0.218045452758 0.937485774807 -0.217449747874 0.066901500004 0.195036166567
0.078320444000 0.065618457385 0.198431523555 0.936039294879 -0.221321726827 0.935972106246 -0.220424221956 0.068642162596 0.197798761471
0.079653555000 0.067305141569 0.201300091988 0.934462017460 -0.224534866972 0.934099672318 -0.223772757526 0.070319106408 0.200775706682
0.080986666000 0.068996738982 0.204362020721 0.932625101806 -0.228109124208 0.932628069837 -0.227184830177 0.072098785017 0.203605326044
0.082319777000 0.070844718087 0.207011131726 0.930933065295 -0.231365088488 0.930986998105 -0.230277188377 0.073875551604 0.206482140133
0.083652888000 0.072580028241 0.209905833798 0.929089700478 -0.234532418988 0.929246099910 -0.233341392749 0.075677587922 0.209314375548
0.084986000000 0.074346559095 0.212662799185 0.927652568821 -0.237337412983 0.927340980737 -0.236463016079 0.077532572293 0.212083596820
0.086319111000 0.076084236451 0.215554870512 0.925933260505 -0.240474987936 0.925815207996 -0.239606435729 0.079376404069 0.214896101701
0.087652222000 0.077898430011 0.218222949428 0.924238666293 -0.243612243651 0.923944523693 -0.242649620698 0.081284309611 0.217570813306
0.088985333000 0.079776407375 0.220907560135 0.922434107844 -0.246548518193 0.922023815377 -0.245834675477 0.083048536317 0.220316580055
0.090318444000 0.081594515767 0.223642849135 0.920552096084 -0.249731021515 0.920513508274 -0.248783145549 0.084966254392 0.222974831397
0.091651555000 0.083479228055 0.226504497055 0.918993546450 -0.252414307206 0.918687743904 -0.251814655604 0.086876311655 0.225718621184
0.092984666000 0.085456749088 0.229034150301 0.917095883012 -0.255839870471 0.917025032941 -0.254766022377 0.088786834249 0.228406241090
0.094317777000 0.087284112967 0.231776835702 0.915325775807 -0.258715457952 0.915034802659 -0.257602487539 0.090694823848 0.231065720439
0.095650888000 0.089248357535 0.234478263415 0.913613349435 -0.261531915039 0.913464487721 -0.260525550410 0.092649657781 0.233733778023
0.096984000000 0.091096387801 0.237082141778 0.911887002478 -0.264767784779 0.911869078076 -0.263596434873 0.094449508498 0.236518433537
0.098317111000 0.093020414219 0.239803905858 0.910073414827 -0.267271458391 0.909833062376 -0.266655597930 0.096407799271 0.239117056087
0.099650222000 0.095125608697 0.242307333794 0.907856606262 -0.270641030931 0.908577614515 -0.269748695676 0.098457741489 0.241776409502
0.100983333000 0.097011004054 0.244909190943 0.906150954596 -0.273348148744 0.906140560826 -0.272887553952 0.100479255445 0.244396258294
0.102316444000 0.099037621512 0.247508990569 0.904375695520 -0.276351917214 0.904328055695 -0.275591901416 0.102410841169 0.246875775794
0.103649555000 0.100931747541 0.250103703056 0.902477149801 -0.279239505488 0.902493104226 -0.278474431690 0.104456642629 0.249492809305
0.104982666000 0.103091130617 0.252561090852 0.900754450516 -0.282029701950 0.900447642025 -0.281244883463 0.106488037628 0.252012645043
0.106315777000 0.105073298975 0.255017847990 0.898577714240 -0.284878665751 0.898674963389 -0.284449315244 0.108469219675 0.254598486001
0.107648888000 0.107081741671 0.257538292622 0.896963436737 -0.287359137260 0.896705639647 -0.287355840987 0.110597324693 0.257000900827
0.108982000000 0.109251375978 0.259906869321 0.894961771081 -0.290317023139 0.894814832434 -0.289706670303 0.112554957889 0.259529492299
0.110315111000 0.111215202268 0.262410713221 0.892860202180 -0.293614400972 0.892946309654 -0.292615635234 0.114677474369 0.261978488139
0.111648222000 0.113200635802 0.264986041015 0.890969813412 -0.296012834697 0.890988656453 -0.295336585889 0.116628391880 0.264329507100
0.112981333000 0.115335504896 0.267268690909 0.888950577414 -0.298783075824 0.889236293536 -0.297843188162 0.118654298443 0.266851154605
0.114314444000 0.117340817209 0.269737590765 0.887178628246 -0.301091091390 0.886982296714 -0.300606705395 0.120810859810 0.269029263031
0.115647555000 0.119485771178 0.272093295812 0.885454942630 -0.303686578030 0.885141655196 -0.303502816927 0.122871205306 0.271620175402
0.116980666000 0.121489707911 0.274347848735 0.883228013153 -0.306152569584 0.883162422047 -0.306200086371 0.124971095181 0.274011469927
0.118313777000 0.123709147935 0.276734818369 0.881238532063 -0.309020942938 0.881332977332 -0.308597265073 0.127076952410 0.276309201334
0.119646888000 0.125742906791 0.278981739024 0.879201502523 -0.311510218224 0.879380588650 -0.311288216024 0.129199141578 0.278748450001
0.120980000000 0.127909541677 0.281362977429 0.877472928013 -0.313899578278 0.877352501035 -0.314164960767 0.131252307159 0.281004055776
0.122313111000 0.130082037548 0.283643505689 0.875648088241 -0.316587704158 0.875167361658 -0.316698983845 0.133434268380 0.283327948976
0.123646222000 0.132154167264 0.285735612028 0.873251130711 -0.319133027137 0.872874768426 -0.318988577642 0.135580570266 0.285462218422
0.124979333000 0.134315043819 0.288123007100 0.871217287490 -0.321709458757 0.870985282559 -0.321825503962 0.137513360049 0.287918148628
0.126312444000 0.136450033598 0.290376899481 0.869226431293 -0.324855211137 0.868923264523 -0.324319030727 0.139696496624 0.290214755299
0.127645555000 0.138429532080 0.292702291129 0.867369577501 -0.326809248323 0.867222627744 -0.326912884744 0.141704993956 0.292492266860
0.128978666000 0.140503272170 0.294808044170 0.865252518197 -0.329258717894 0.865330376625 -0.329413690466 0.143917840785 0.294646708015
0.130311777000 0.142846614547 0.296972121771 0.863129010267 -0.331866761129 0.862770356394 -0.331658734347 0.145860626628 0.296825114647
0.131644888000 0.144926445661 0.299121940555 0.861105520028 -0.334325345833 0.860725152676 -0.334491398523 0.148093183894 0.299111849548
0.132978000000 0.147000253628 0.301299517748 0.859046592625 -0.336621967153 0.858619585360 -0.336857686276 0.150144762250 0.301165758423
0.134311111000 0.149023703732 0.303456754092 0.857227081929 -0.339243902323 0.856846444651 -0.339209747116 0.152289659760 0.303631430216
0.135644222000 0.151224894742 0.305519013585 0.855203270271 -0.341410570216 0.854636892808 -0.341697169586 0.154438012707 0.305778667592
0.136977333000 0.153485007983 0.307685699288 0.853056768295 -0.344053843015 0.852466066472 -0.344255019652 0.156611241915 0.307827938507
0.138310444000 0.155593583038 0.309799477853 0.850790193429 -0.345912156692 0.850514105327 -0.346427530801 0.158717633774 0.309821642200
0.139643555000 0.157902887581 0.311726764561 0.848664458280 -0.348517709380 0.848123393349 -0.348894485642 0.160834962061 0.312008628848
0.140976666000 0.160208680506 0.313825381885 0.846538241141 -0.350894168639 0.846065599654 -0.351097867103 0.162993122856 0.314130740511
0.142309777000 0.162220593017 0.315884529868 0.844555764712 -0.352602475630 0.843967153982 -0.353534875215 0.165135982217 0.316195857068
0.143642888000 0.164506891427 0.317852744162 0.842351866347 -0.354963884493 0.841494373756 -0.356149121509 0.167564014163 0.318224261144
0.144976000000 0.166791141960 0.319798288747 0.840433988822 -0.357660516779 0.839708425932 -0.357943660224 0.169746654694 0.320105731939
0.146309111000 0.169113282580 0.321762778178 0.838013848474 -0.359866681705 0.837784432090 -0.360509053334 0.172179742032 0.322035995110
0.147642222000 0.171511306576 0.323659297391 0.835805586274 -0.362100399026 0.835448484097 -0.362705191118 0.174560989986 0.324021917004
0.148975333000 0.173719761549 0.325641211145 0.833926067587 -0.364123766056 0.833644440417 -0.364941287452 0.176771058954 0.325998050532
0.150308444000 0.176215579994 0.327366381642 0.831289141848 -0.366418008624 0.831092927169 -0.367366072688 0.179292808880 0.327763578440
0.151641555000 0.178529658499 0.329437397540 0.829704841368 -0.368680601128 0.828971156818 -0.369567620438 0.181731734914 0.329549604719
0.152974666000 0.181040107899 0.331140461342 0.827205372995 -0.371073580346 0.826693785457 -0.371606024287 0.184197477730 0.331342866957
0.154307777000 0.183402928353 0.332938170655 0.825200940218 -0.373214222090 0.824539454497 -0.374043485398 0.186551154396 0.333156676430
0.155640888000 0.185675459494 0.334598142866 0.822693881222 -0.375251183137 0.822342302011 -0.376047428436 0.188979198499 0.334936206397
0.156974000000 0.188193858153 0.336325286320 0.820422584764 -0.377758992392 0.820181569800 -0.378523648800 0.191492462346 0.336701253113
0.158307111000 0.190673522589 0.338148000399 0.818466333067 -0.379855172977 0.817757330009 -0.380945503523 0.194118842876 0.338403242457
0.159640222000 0.193139277742 0.339848055936 0.816086431808 -0.381935758274 0.815755204370 -0.382675273436 0.196523013177 0.340086586635
0.160973333000 0.195558913227 0.341436671046 0.813859388301 -0.384314041543 0.813194880056 -0.384981870919 0.198907703422 0.341559170473
0.162306444000 0.197899725291 0.343239433693 0.811715026128 -0.386208658922 0.811492742102 -0.386754550630 0.201204107002 0.343346418564
0.163639555000 0.200418299441 0.344972647105 0.809596308129 -0.388619206401 0.809431804453 -0.389074743297 0.203855522215 0.344940798297
0.164972666000 0.202803903523 0.346494460278 0.806990257793 -0.390446518834 0.807062283508 -0.390687294431 0.206283813671 0.346603269331
0.166305777000 0.205257753083 0.348210199256 0.804789696230 -0.392665726211 0.805036810006 -0.392573252687 0.208634500860 0.348191874070
0.167638888000 0.207654701015 0.349711875022 0.803018334373 -0.394500036888 0.802337223524 -0.395149889581 0.211220812309 0.349851522316
0.168972000000 0.209996993207 0.351315964721 0.800563056677 -0.396555926666 0.800094532164 -0.397133407383 0.213631391203 0.351365400489
0.170305111000 0.212526571455 0.353037144794 0.798473265539 -0.398934952011 0.797711632981 -0.399503637031 0.216228728896 0.352910828005
0.171638222000 0.214915759110 0.354608716648 0.795734941281 -0.400844401885 0.795545701698 -0.401358146296 0.218692553393 0.354593662050
0.172971333000 0.217494369457 0.356104909565 0.793443223858 -0.403318655813 0.793163571084 -0.403342721964 0.221224965402 0.355942468665
0.174304444000 0.219984113987 0.357493764501 0.791338061771 -0.405196095884 0.790461233863 -0.405460114326 0.223678386495 0.357345978556
0.175637555000 0.222485086390 0.359101304002 0.788914624812 -0.407327667008 0.788257799650 -0.407601646303 0.226222362703 0.358875818078
0.176970666000 0.224847112655 0.360454098935 0.786578900428 -0.409256223776 0.785598275072 -0.409931155254 0.228463287474 0.360353800500
0.178303777000 0.227400524325 0.361942756853 0.784196469059 -0.411336107349 0.783683103759 -0.411953876688 0.231011934624 0.361708002627
0.179636888000 0.229755369876 0.363464569125 0.781788202270 -0.413120077010 0.781737389387 -0.412918700230 0.233402664532 0.363350293885
0.180970000000 0.232212829736 0.364878311379 0.779838404732 -0.414957804140 0.779302352493 -0.415146359119 0.235786191209 0.364738339472
0.182303111000 0.234616747457 0.366326839124 0.777474460779 -0.417145740361 0.776839437508 -0.416897659963 0.238132882265 0.366087824613
0.183636222000 0.237098580082 0.367519735020 0.774520624945 -0.419317443974 0.774234773587 -0.419284380520 0.240574413281 0.367458463948
0.184969333000 0.239500034399 0.368959248263 0.772290370600 -0.421087604730 0.771648881271 -0.421378737168 0.242963590697 0.368707985732
0.186302444000 0.242134316999 0.370353204917 0.770114541484 -0.423282608250 0.769240388250 -0.423056377525 0.245618254374 0.370078093739
0.187635555000 0.244545022613 0.371651610093 0.767565943164 -0.424992090121 0.766937155833 -0.424577409441 0.247765214230 0.371726231674
0.188968666000 0.246890565475 0.373004014773 0.765231674877 -0.426860773388 0.764637304741 -0.426564635634 0.250369146722 0.372943307382
0.190301777000 0.249527274711 0.374292514619 0.762784163237 -0.428577691798 0.762471704875 -0.428653456861 0.252651874391 0.374251844331
0.191634888000 0.251628951121 0.375667955600 0.760246646173 -0.430638931069 0.759940534517 -0.430373225232 0.255149340433 0.375428663908
0.192968000000 0.254105144235 0.376707622981 0.757786057016 -0.432530971679 0.757535738578 -0.432432753373 0.257546548467 0.376527639306
0.194301111000 0.256725091427 0.377888054459 0.755403385218 -0.434359586659 0.754603265306 -0.433894697104 0.259927910110 0.377731931916
0.195634222000 0.259178431916 0.379347403697 0.753101143728 -0.436226961856 0.752276581086 -0.435953088289 0.262394615316 0.378982480130
0.196967333000 0.261549527005 0.380329916551 0.750224720729 -0.438584251335 0.749857829622 -0.437691852639 0.264678896288 0.380142351215
0.198300444000 0.264046911767 0.381456294681 0.747805730222 -0.440404183782 0.746899360890 -0.439773416391 0.267086549893 0.381513840296
0.199633555000 0.266503910511 0.382826694218 0.745399120752 -0.442415381925 0.744439198945 -0.441618413007 0.269809183772 0.382390155753
0.200966666000 0.268874214098 0.383968220823 0.742718930657 -0.444131495652 0.741843341251 -0.443210824318 0.272151965064 0.383526954316
0.202299777000 0.271376518550 0.384862373208 0.740012728954 -0.446021658175 0.739354966621 -0.444935389289 0.274398701409 0.384767702421
0.203632888000 0.273999984231 0.386031064519 0.737670259812 -0.447488027544 0.736967709580 -0.446521786171 0.276697753942 0.386028186940
0.204966000000 0.276254000360 0.386974111025 0.734902606441 -0.449215764507 0.734177228531 -0.448544415930 0.279157879130 0.387125607676
0.206299111000 0.278771000704 0.388160778031 0.732231116081 -0.451235904002 0.731557316041 -0.450074182643 0.281786345605 0.387976510551
0.207632222000 0.281273177331 0.388965337576 0.729604000201 -0.452984739801 0.728997586756 -0.452089764114 0.283972946553 0.388956695214
0.208965333000 0.283714096971 0.390085060266 0.727232527249 -0.454566027381 0.726296359853 -0.453830201846 0.286419518923 0.389892593104
0.210298444000 0.286017652687 0.391250947731 0.724780405621 -0.456442556861 0.723714394912 -0.455030323430 0.288703787372 0.391042030624
0.211631555000 0.288537297204 0.391977824797 0.721760549871 -0.458562949350 0.721138251097 -0.456459686110 0.290894217435 0.391769142096
0.212964666000 0.290870947158 0.393041353896 0.719024829527 -0.460389477922 0.718467421468 -0.458326326283 0.293321183029 0.392723800373
0.214297777000 0.293269588087 0.393995694794 0.716146665685 -0.462043814798 0.715828671821 -0.459650444382 0.295575819955 0.393596479694
0.215630888000 0.295751570667 0.394934550404 0.713636304711 -0.463420283549 0.713304291955 -0.461052407341 0.298018839762 0.394864623241
0.216964000000 0.298038847382 0.395721016199 0.710996484484 -0.464997109646 0.710657238524 -0.462794654674 0.300436688091 0.395411119715
0.218297111000 0.300591510639 0.396601926913 0.708160114417 -0.466768538575 0.708015885918 -0.464508057375 0.303032703509 0.396354395428
0.219630222000 0.302993033755 0.397688119755 0.705613218838 -0.468529803585 0.705304255807 -0.466019073612 0.305258225278 0.397425733810
0.220963333000 0.305327102517 0.398357993341 0.702711364581 -0.469974724789 0.702723761094 -0.467426196907 0.307443752737 0.398302361893
0.222296444000 0.307795867193 0.399244810968 0.700330081907 -0.471414564136 0.700130152245 -0.468927726245 0.309811365652 0.399103966696
0.223629555000 0.310165211359 0.399922884267 0.697392578067 -0.472800182719 0.697261432518 -0.470481416988 0.312362533668 0.399807369668
0.224962666000 0.312580207984 0.400722591381 0.694322164105 -0.474632241951 0.694665883828 -0.471871372096 0.314418679521 0.400668247550
0.226295777000 0.314844553492 0.401514096487 0.691587880004 -0.476079461781 0.691671288159 -0.473472760209 0.316801599893 0.401418401499
0.227628888000 0.317281646347 0.402346196203 0.689139700572 -0.477265558595 0.689043824099 -0.474775296641 0.319011695437 0.402573123973
0.228962000000 0.319669550087 0.403280803412 0.686367162364 -0.479066989083 0.686499146047 -0.476091849016 0.321404002883 0.403033255649
0.230295111000 0.321991658990 0.403766708530 0.683218640869 -0.480575911713 0.683778261841 -0.477399762745 0.323784506608 0.403903925065
0.231628222000 0.324292286331 0.404686247495 0.680660384237 -0.481872960056 0.681176980232 -0.478487585659 0.325978540594 0.404608863556
0.232961333000 0.326644257309 0.405389569337 0.677763852465 -0.483262320527 0.678337702906 -0.480153716865 0.328404293475 0.405179458972
0.234294444000 0.329025090572 0.406279584046 0.675144881871 -0.484700739498 0.675902426965 -0.480943986722 0.330778998454 0.406126844152
0.235627555000 0.331261931673 0.406932301531 0.672314347978 -0.485969397233 0.672873338735 -0.482328646143 0.332978803407 0.406848978824
0.236960666000 0.333889937338 0.407541958483 0.669761665901 -0.487285776400 0.670129979758 -0.483561742525 0.335425786311 0.407503398172
0.238293777000 0.336065618604 0.408220897864 0.667012956810 -0.488452622909 0.667512284249 -0.485046202631 0.337811956239 0.408142314913
0.239626888000 0.338672561664 0.408817385636 0.664136752070 -0.489793266712 0.664762304765 -0.486160704997 0.340083494330 0.408889018396
0.240960000000 0.340890526778 0.409440886151 0.661298364424 -0.490980538408 0.661956034152 -0.487906666295 0.342430850320 0.409517431917
0.242293111000 0.343293778823 0.409850988457 0.658432412072 -0.492240084978 0.659283388057 -0.489114339492 0.344779898854 0.410166965919
0.243626222000 0.345574608134 0.410850210370 0.655805815109 -0.493330861877 0.656582042533 -0.489939349997 0.347081405205 0.411002031043
0.244959333000 0.348202696726 0.411324127440 0.652887911919 -0.494952685449 0.653930698930 -0.491580108187 0.349308122552 0.411369258069
0.246292444000 0.350508932278 0.411792115604 0.650234859216 -0.495944847173 0.651152791811 -0.492547253213 0.351595955251 0.412057659837
0.247625555000 0.352994892871 0.412393610391 0.647419035422 -0.497041111430 0.648428336214 -0.493612480569 0.353787777655 0.412713225871
0.248958666000 0.355239674016 0.412962892168 0.644812993067 -0.497958321850 0.645965484717 -0.494623861806 0.356378557946 0.413535290683
0.250291777000 0.357774679716 0.413558563316 0.642147643521 -0.498946587391 0.643133536192 -0.495366463483 0.358593911923 0.414041479541
0.251624888000 0.359946693557 0.414288271253 0.639487627998 -0.499968161104 0.640597159037 -0.496342497526 0.360801595206 0.414775882563
0.252958000000 0.362146430372 0.414654324054 0.636445741036 -0.500889851207 0.637628320562 -0.497626412043 0.363289327683 0.415102059472
0.254291111000 0.364705573760 0.415341538915 0.633834100712 -0.502446780161 0.635285588040 -0.498526885343 0.365630069354 0.415641968074
0.255624222000 0.366762969004 0.415819840545 0.630934700002 -0.503224509229 0.632361315251 -0.499601269758 0.367981024027 0.416283470785
0.256957333000 0.369196280164 0.416344428368 0.628079533206 -0.504082802620 0.629849996108 -0.500596206022 0.370353267801 0.416863806140
0.258290444000 0.371762630283 0.416677198146 0.625655651267 -0.505231131445 0.627175605067 -0.501143297782 0.372584244941 0.417326775297
0.259623555000 0.373965520086 0.417360478948 0.622950067046 -0.505946618254 0.624814047242 -0.502179709074 0.374762191707 0.417901032161
0.260956666000 0.376284714307 0.417841381769 0.620614159240 -0.506496168924 0.621780992474 -0.502944569584 0.377275298578 0.418685609868
0.262289777000 0.378566030422 0.418423021887 0.617827853401 -0.507345724171 0.619284896422 -0.503444455199 0.379610039211 0.419202664710
0.263622888000 0.381001615726 0.418939259797 0.615148796425 -0.508565436279 0.616679650893 -0.504145147595 0.381983743756 0.419358934044
0.264956000000 0.383248794774 0.419280513703 0.612472080839 -0.508855885946 0.614326575166 -0.505085343700 0.384367510277 0.419911237131
0.266289111000 0.385774697232 0.419858180338 0.609837043062 -0.509999147089 0.611994900468 -0.505966324355 0.386395030728 0.420721703151
0.267622222000 0.388159460920 0.420112785733 0.607396309767 -0.510779668778 0.609190216643 -0.506656890828 0.388747010985 0.421022007984
0.268955333000 0.390385403051 0.420582962728 0.604612512391 -0.511358812595 0.606590899756 -0.507300701859 0.391119874191 0.421343209719
0.270288444000 0.392768394217 0.421141352096 0.602144138718 -0.512263973516 0.603744263993 -0.507890482035 0.393360217946 0.421755208614
0.271621555000 0.394928532752 0.421461009463 0.599356299682 -0.512963015901 0.601391222362 -0.508798365146 0.395684552703 0.422030084232
0.272954666000 0.397338440162 0.421807578151 0.596994644579 -0.513489897504 0.598923577479 -0.509408999440 0.398114703291 0.422509858801
0.274287777000 0.399658461289 0.422287341595 0.594270586712 -0.514327957744 0.596590031973 -0.509895692677 0.400389976913 0.422831252523
0.275620888000 0.402078389188 0.422363226212 0.591943256888 -0.515041952147 0.593905957749 -0.510612656638 0.403030097019 0.423146819450
0.276954000000 0.404279734085 0.422867840925 0.589350687758 -0.515449759187 0.591292581276 -0.511312271382 0.405289979117 0.423381590075
0.278287111000 0.406760777715 0.423145597755 0.587056286385 -0.516125226793 0.589051187477 -0.511359525333 0.407991698955 0.423769228930
0.279620222000 0.409152651527 0.423497165067 0.584187248743 -0.517053072477 0.586392864426 -0.512046050654 0.410039460650 0.424159218527
0.280953333000 0.411457925489 0.423657989620 0.581692571547 -0.517714637181 0.583994728900 -0.512834095490 0.412553534335 0.424426176456
0.282286444000 0.413944134472 0.424166602528 0.579400073075 -0.518212450577 0.581626350809 -0.513338179581 0.414696910136 0.424787621653
0.283619555000 0.416289309023 0.424177872824 0.576974670229 -0.518872333299 0.579448843655 -0.513848706555 0.417254591304 0.425153870159
0.284952666000 0.418472415882 0.424565804611 0.574355149660 -0.519016691433 0.576639337493 -0.514301222230 0.419566885843 0.425231506812
0.286285777000 0.420945578096 0.424737444404 0.571834521771 -0.519789881295 0.574324649304 -0.514805942205 0.421603338846 0.425657826771
0.287618888000 0.423239878333 0.425124987783 0.569731631520 -0.519874338461 0.572090725500 -0.515181549531 0.424020584738 0.425981496263
0.288952000000 0.425522408577 0.425419059424 0.567279432127 -0.520343632269 0.569567892329 -0.515976799590 0.426436467323 0.426120247204
0.290285111000 0.427772220429 0.425747748926 0.565123097321 -0.520947404164 0.567326046933 -0.516228902519 0.428680654673 0.426527588436
0.291618222000 0.430098173389 0.425846923095 0.562527433010 -0.521408038152 0.564777772419 -0.516833129155 0.430897087149 0.426565623073
0.292951333000 0.432556192512 0.426114898158 0.559971753316 -0.521904215177 0.562867179847 -0.516924079895 0.433185728477 0.426814619702
0.294284444000 0.434890271063 0.426173074514 0.557699561804 -0.522361790757 0.560478568014 -0.517601833592 0.435510794590 0.427053135978
0.295617555000 0.437226576222 0.426367865999 0.555610810888 -0.522518654018 0.557659445572 -0.517720767707 0.437927491005 0.427054116054
0.296950666000 0.439620179410 0.426560212278 0.553079747209 -0.523068822449 0.555637303206 -0.518359415386 0.440088818608 0.427328187558
0.298283777000 0.441899500075 0.426588456584 0.550680539628 -0.523324349088 0.553353622385 -0.518769932513 0.442420761963 0.427495349230
0.299616888000 0.444169730704 0.426662618934 0.548415137925 -0.523523246772 0.550979762259 -0.519125397657 0.444739488817 0.427667563117
0.300950000000 0.446508993176 0.427062481411 0.546182372400 -0.523726699577 0.548800323041 -0.519112991426 0.447100493931 0.427702730992
0.302283111000 0.448482566267 0.427160041788 0.543937606444 -0.523987863195 0.546301318962 -0.519578635814 0.449551467001 0.427557889677
0.303616222000 0.451004179035 0.427123910831 0.541691589307 -0.524606615464 0.544245270467 -0.519970890098 0.451586328160 0.428051394053
0.304949333000 0.453083482633 0.427237978192 0.539499501140 -0.524782065640 0.542013574286 -0.520316024344 0.453771646043 0.428010658269
0.306282444000 0.455368396311 0.427422450220 0.537290307324 -0.524771310599 0.539646790630 -0.520515132007 0.456142753285 0.428209531106
0.307615555000 0.457600756964 0.427328991189 0.535168587001 -0.525112660494 0.537052223757 -0.521460376254 0.458460531360 0.428158137725
0.308948666000 0.459922057203 0.427354405476 0.532811147397 -0.525591539869 0.534867578587 -0.521433170481 0.460650203941 0.427862337666
0.310281777000 0.462365624893 0.427307564402 0.530502186379 -0.525975675256 0.532904645670 -0.521765199709 0.462902834072 0.428256746259
0.311614888000 0.464853739631 0.427223296490 0.528215319615 -0.526079656132 0.530698717238 -0.522233764753 0.465503554799 0.428116001374
0.312948000000 0.466656800401 0.427338520050 0.526001098123 -0.526320804047 0.528733579888 -0.521782269932 0.467340302270 0.428171634404
0.314281111000 0.468972456206 0.427595845399 0.523017038835 -0.527255041796 0.526501360874 -0.522072895946 0.470550322906 0.427129774181
0.315614222000 0.471349419072 0.427593729424 0.520902816424 -0.527680378880 0.524337660769 -0.522330555943 0.472850564094 0.427338193727
0.316947333000 0.473506030586 0.427727631667 0.518895397234 -0.527658691535 0.521983459415 -0.522889378658 0.475092092218 0.427116498774
0.318280444000 0.475784758239 0.427375832211 0.516472636982 -0.527938591696 0.519914510556 -0.522929242255 0.477359888516 0.427196545174
0.319613555000 0.478225683679 0.427220610955 0.514514127461 -0.528011979106 0.517727468504 -0.522876737212 0.479538851179 0.426993648823
0.320946666000 0.480571055043 0.427246251106 0.512198471720 -0.528275892885 0.515520635603 -0.523152468358 0.481969720945 0.426881906496
0.322279777000 0.482650861141 0.427172365728 0.510306704195 -0.528458091150 0.513390163752 -0.523365640337 0.484075765254 0.426806054123
0.323612888000 0.484589404758 0.427074873935 0.508262907988 -0.528329925978 0.511019566664 -0.523576685533 0.486204805751 0.426596325200
0.324946000000 0.487188879273 0.426845200527 0.506051733401 -0.528546146036 0.509056802370 -0.524083161897 0.488558801579 0.426457012542
0.326279111000 0.489235812344 0.426646350398 0.503633748428 -0.528869150879 0.507070397547 -0.524315176444 0.490830511738 0.426294571376
0.327612222000 0.491289797043 0.426672181047 0.501751929473 -0.529161061548 0.505002693010 -0.524398671950 0.493054921280 0.426163847695
0.328945333000 0.493655256909 0.426624770826 0.499506201406 -0.529241119430 0.503001167488 -0.524455906819 0.495245946973 0.426045955318
0.330278444000 0.495971423413 0.426578085774 0.497647864806 -0.529260081491 0.501288448003 -0.524489175367 0.497366924929 0.425988002278
0.331611555000 0.498260541522 0.426238640117 0.495531693681 -0.529307062109 0.498890954549 -0.524504949218 0.499623842857 0.425442603168
0.332944666000 0.500659863300 0.426012663213 0.493587313072 -0.529518557487 0.497261686862 -0.524872015005 0.501928591918 0.425537500544
0.334277777000 0.502678334800 0.425355209811 0.490941215193 -0.529537835596 0.495059844893 -0.524883176708 0.503864238098 0.425125721061
0.335610888000 0.504802467641 0.425459699112 0.489306730586 -0.529766014763 0.492837352088 -0.525351285643 0.506166889109 0.425017955591
0.336944000000 0.507048222263 0.425180262816 0.487716241936 -0.529144926929 0.490897778092 -0.525211722021 0.508052127249 0.424774306435
0.338277111000 0.509417128483 0.424849951401 0.485378587413 -0.529577817974 0.488839680511 -0.525396785857 0.510199035386 0.424631158820
0.339610222000 0.511693017507 0.424764317829 0.483292037248 -0.529809759055 0.486697135031 -0.525363891972 0.512473853427 0.424347816773
0.340943333000 0.513457179632 0.424704999802 0.481465999653 -0.529545676561 0.484908616204 -0.525535279113 0.514614565818 0.424300335748
0.342276444000 0.515620884999 0.424097726240 0.479213643891 -0.529497414331 0.482890471839 -0.525313802724 0.516567720848 0.423750723992
0.343609555000 0.517622859028 0.423860768783 0.477339732517 -0.529572460760 0.480855851437 -0.525768367442 0.518877251195 0.423807264701
0.344942666000 0.519721413566 0.423733337717 0.475576599977 -0.529251902007 0.479114399894 -0.525450411706 0.521084265353 0.423258426247
0.346275777000 0.522421014748 0.423410364574 0.473470106786 -0.529953829406 0.477196940906 -0.525775655989 0.523151182519 0.422907042530
0.347608888000 0.523954367443 0.423167935563 0.471765777248 -0.529632286674 0.475170567578 -0.525392229525 0.525446241305 0.422339351145
0.348942000000 0.526116104852 0.422745204174 0.469543078421 -0.529784448219 0.473201324483 -0.525800850419 0.527489371824 0.422071188347
0.350275111000 0.528555953987 0.422688387188 0.467856102060 -0.529978018825 0.471285952128 -0.525548941470 0.529338997235 0.421865542624
0.351608222000 0.530533672172 0.421954401616 0.465742399486 -0.529611267232 0.469346683971 -0.525695524868 0.531429069534 0.421553338500
0.352941333000 0.531929716511 0.422098791129 0.463857032260 -0.529584492620 0.467398437531 -0.525733796121 0.533770497748 0.420942296602
0.354274444000 0.534224889447 0.421219459566 0.462149233588 -0.529352741166 0.465847909259 -0.525838018902 0.535768054782 0.420882155016
0.355607555000 0.536195531740 0.421328072041 0.460252969460 -0.529620658593 0.464012135255 -0.525863316297 0.537915240549 0.420360006990
0.356940666000 0.538596058459 0.420835230862 0.458154856050 -0.529806220778 0.462068051998 -0.525783047639 0.539883579824 0.419979459976
0.358273777000 0.540548207701 0.420086808897 0.456415555279 -0.529567429336 0.460376806337 -0.525872019342 0.542064577165 0.419608492209
0.359606888000 0.542589962337 0.419776622381 0.454601830209 -0.529417667767 0.458152833882 -0.525930947246 0.543955896650 0.419097646980
0.360940000000 0.544784096211 0.419989373801 0.452800688810 -0.529943921448 0.456790385520 -0.526197458778 0.545970829672 0.419100837422
0.362273111000 0.547056035392 0.419105556345 0.450958682463 -0.529442760363 0.454725973593 -0.526126641014 0.547984825106 0.418435386328
0.363606222000 0.549005758695 0.418817342239 0.449571934310 -0.529086088457 0.453365950030 -0.525604187434 0.549661974336 0.418444139189
0.364939333000 0.550807233768 0.418414309345 0.447337021733 -0.529306637167 0.451236678469 -0.526059007543 0.552227554345 0.417816573487
0.366272444000 0.552882559645 0.417517539607 0.445627862303 -0.528969292681 0.449457541999 -0.525828539332 0.553912705775 0.417292380457
0.367605555000 0.554792739387 0.417268601084 0.443753584197 -0.529100770650 0.447664746819 -0.526003279801 0.556158757440 0.416633538289
0.368938666000 0.556662381490 0.416670151225 0.441970776116 -0.528905209228 0.446050574125 -0.525611052197 0.557798344686 0.416292686242
0.370271777000 0.558675368450 0.416393597110 0.440605114510 -0.528750309264 0.444042197260 -0.526033860831 0.559864551285 0.415913710973
0.371604888000 0.560871252119 0.415929830223 0.438765414147 -0.528916814707 0.442360894363 -0.525698239681 0.561689249828 0.415450799918
0.372938000000 0.562837000234 0.415394170100 0.437054869125 -0.528915532732 0.440944671398 -0.525689129124 0.563815819291 0.415431378509
0.374271111000 0.564287416382 0.414835303549 0.435178150314 -0.528433574405 0.439056832299 -0.525711347399 0.565477677777 0.414820758743
0.375604222000 0.566090665104 0.414727398154 0.433908719657 -0.527992572306 0.437479142223 -0.525167251052 0.567225345453 0.414477988650
0.376937333000 0.568017319440 0.414200561812 0.432138910641 -0.528253975573 0.435755239589 -0.525501385145 0.569314442563 0.414054584740
0.378270444000 0.570010951777 0.413473977781 0.430406558828 -0.528180826842 0.433520440270 -0.525723536604 0.571011089533 0.413666210622
0.379603555000 0.571928002565 0.413129854468 0.428521254751 -0.528086648376 0.432242441857 -0.525486526727 0.572657099541 0.413239685443
0.380936666000 0.573815602674 0.412750623966 0.427083205257 -0.528176317365 0.430211355745 -0.525448106536 0.574922105689 0.412748328088
0.382269777000 0.575734603866 0.412223794691 0.425142864528 -0.528207187708 0.428662365656 -0.525224368968 0.576668314970 0.412177635728
0.383602888000 0.577314419664 0.411824489912 0.423773145897 -0.527912984947 0.427044268866 -0.525264242813 0.578685905087 0.411481929026
0.384936000000 0.579196197716 0.411174303055 0.422007954573 -0.527777987490 0.425254372074 -0.525545029553 0.580305869249 0.410915210693
0.386269111000 0.581225707700 0.410237153577 0.420073802642 -0.527412894548 0.423843881269 -0.525071133612 0.582139057215 0.410643070900
0.387602222000 0.583074889830 0.409954866715 0.418694137624 -0.527531514914 0.422017326015 -0.525077752731 0.584125795627 0.409886228140
0.388935333000 0.585000797220 0.409732427581 0.416803468031 -0.527423696101 0.420567475761 -0.525135966069 0.585858552588 0.409405968533
0.390268444000 0.586438331351 0.409366824899 0.415449125543 -0.527137998089 0.418869253317 -0.524875075601 0.587441989781 0.409244207941
0.391601555000 0.588614581888 0.408634988410 0.413619347366 -0.527139620217 0.417247992719 -0.524843726647 0.589080808101 0.408450867419
0.392934666000 0.590310494700 0.407723180588 0.411881335901 -0.527198755755 0.415652517337 -0.524902803140 0.591412326821 0.407600475869
0.394267777000 0.591843411255 0.407431116769 0.410200466498 -0.526967016437 0.413833374789 -0.524784180559 0.592915573194 0.407111546682
0.395600888000 0.593787931335 0.406824200715 0.408509592164 -0.527253521562 0.412192197769 -0.524983372641 0.595276536650 0.406840163994
0.396934000000 0.595593768334 0.406523844058 0.407040427401 -0.526985262555 0.410882668063 -0.524753955622 0.596592587917 0.406150323817
0.398267111000 0.597286878291 0.405854113999 0.405507644389 -0.526912208241 0.409043918976 -0.524875350731 0.598417152516 0.405862110436
0.399600222000 0.599242800679 0.405057065651 0.403768931580 -0.526947513290 0.407072028646 -0.524840654832 0.600202902904 0.405044884619
0.400933333000 0.600812705414 0.404703801773 0.402278468079 -0.526816717070 0.405644536083 -0.524574924929 0.601819251153 0.404513407884
0.402266444000 0.602801005521 0.403876193693 0.400650551323 -0.526695460280 0.403850628772 -0.524272021847 0.603427419050 0.403961678325
0.403599555000 0.604210662426 0.403366169419 0.398948801677 -0.526436817026 0.402222055576 -0.524454414295 0.605483667250 0.403734248109
0.404932666000 0.605986082559 0.402744066786 0.396938164949 -0.526686380469 0.400502611301 -0.524582028690 0.606896403641 0.403342229668
0.406265777000 0.607878902447 0.402155377240 0.395679265018 -0.526487889460 0.398762193174 -0.524710965788 0.608752476951 0.402491433279
0.407598888000 0.609562944326 0.401520480006 0.393820096863 -0.526423708699 0.397580206639 -0.524744239586 0.610607993861 0.402115828589
0.408932000000 0.611028951784 0.400864939958 0.392314107261 -0.526397435559 0.395514526775 -0.524560421640 0.612226615303 0.401349920291
0.410265111000 0.612738345617 0.400123672484 0.390659819220 -0.526332961922 0.394072034966 -0.524399795314 0.613841683750 0.400744632146
0.411598222000 0.614386128159 0.399671246349 0.389039700295 -0.526176372506 0.392294001922 -0.524312176697 0.615357783295 0.400158344961
0.412931333000 0.616246598381 0.398889090530 0.387233107861 -0.526044392352 0.390352091397 -0.524400815457 0.616825872666 0.399771653557
0.414264444000 0.617890150964 0.398452116195 0.385467533158 -0.525822434289 0.388916899835 -0.524499627462 0.618850471923 0.399233528749
0.415597555000 0.619476054996 0.397559958530 0.383969738988 -0.525721920167 0.387106406007 -0.524750760742 0.620642399782 0.398522272854
0.416930666000 0.620972293305 0.396893704191 0.382438086308 -0.525807511984 0.385311127288 -0.524507941023 0.622279698324 0.397710242925
0.418263777000 0.622747870813 0.396414653789 0.380807163326 -0.525611474911 0.383904863995 -0.524664061797 0.623719318932 0.397206456472
0.419596888000 0.624388091365 0.395698618898 0.379570774494 -0.525336987782 0.382341281520 -0.524358546976 0.625104946644 0.396524124973
0.420930000000 0.626055550888 0.394955427845 0.377295358400 -0.525726628331 0.380785382506 -0.524622542442 0.626738830004 0.396000360844
0.422263111000 0.627510341696 0.394398773722 0.375917717738 -0.525486860595 0.378867764297 -0.524470890111 0.628483193575 0.395352726510
0.423596222000 0.629149367280 0.393784746526 0.374334434238 -0.525412896479 0.377563405677 -0.524095346556 0.629906446354 0.394959427567
0.424929333000 0.630575847304 0.393317125395 0.372614685426 -0.525518821341 0.375626273175 -0.524014071345 0.631141235124 0.394422518102
0.426262444000 0.632475857262 0.392364479876 0.370925750096 -0.525414684024 0.374255747945 -0.523917692515 0.632698927359 0.393941461842
0.427595555000 0.634044278574 0.392034019747 0.369630240943 -0.525118398443 0.372616134689 -0.523780220756 0.634190325971 0.393679141701
0.428928666000 0.635336904596 0.391091922696 0.367788547539 -0.525160950199 0.370955908353 -0.523987024019 0.636019335917 0.392885903895
0.430261777000 0.636793246591 0.390350879091 0.365982367719 -0.525120891753 0.369167329390 -0.523839389220 0.637456488399 0.391828487890
0.431594888000 0.638496895221 0.389787659554 0.364322106518 -0.524978222759 0.367829363156 -0.523719430011 0.639082892945 0.391155215617
0.432928000000 0.639911338149 0.389154784220 0.362430145769 -0.525010095193 0.365655321605 -0.523641512986 0.640418457963 0.390875587785
0.434261111000 0.641335964422 0.388498188742 0.360836136133 -0.525023407333 0.364137050157 -0.523695367984 0.641724430616 0.390091903806
0.435594222000 0.642803401503 0.387766754425 0.359434171217 -0.524854863168 0.362668620060 -0.523431488259 0.643658185316 0.389167051066
0.436927333000 0.643991954914 0.387087499927 0.357480738065 -0.524702862263 0.360934100963 -0.523267468322 0.644867817648 0.388938426051
0.438260444000 0.645903131690 0.386552936829 0.356094148640 -0.524726838850 0.359071297512 -0.522680376375 0.646233326144 0.387831108381
0.439593555000 0.647247199435 0.385539858402 0.354278098163 -0.524368951281 0.357526237231 -0.522659808916 0.647888438585 0.388149899610
0.440926666000 0.648584417431 0.384645300372 0.352353281986 -0.524152232507 0.355696151653 -0.522728923195 0.649008799332 0.387340692296
0.442259777000 0.650200275684 0.383991387371 0.350758709249 -0.524113860583 0.353895673116 -0.522719795802 0.650441477611 0.386548814464
0.443592888000 0.651610661284 0.383176844427 0.348680736262 -0.524124464172 0.352458955719 -0.522677463653 0.651739938637 0.386306337350
0.444926000000 0.652682925523 0.382426433284 0.347426654324 -0.523787406035 0.350402603107 -0.522591571520 0.653605099074 0.385100912599
0.446259111000 0.654637100167 0.381978155757 0.345880749680 -0.523815209237 0.349093560414 -0.522212207320 0.654525488631 0.384861211833
0.447592222000 0.656145987511 0.381173072246 0.344007619898 -0.523651832044 0.347419686036 -0.521756131953 0.655662438439 0.384257782327
0.448925333000 0.657117529881 0.380709323420 0.342291915920 -0.523353926748 0.345696854479 -0.521399235484 0.657133042006 0.383466659888
0.450258444000 0.658409552108 0.379777997656 0.340256802101 -0.523394214688 0.343921435900 -0.521376439073 0.658346178867 0.382716546652
0.451591555000 0.660192766821 0.378755208775 0.338480597973 -0.523345367886 0.342159006705 -0.521477633458 0.659948569221 0.382348273196
0.452924666000 0.661408751852 0.378354973447 0.337054946681 -0.522828541094 0.340490445134 -0.521378338503 0.661146935684 0.381642047851
0.454257777000 0.662451684830 0.377552098238 0.335164599235 -0.522617350386 0.338665569647 -0.521151635239 0.662386845347 0.380966430022
0.455590888000 0.664195127908 0.376732634697 0.333486472558 -0.522649599613 0.337325616433 -0.520848111738 0.663579187032 0.380490895206
0.456924000000 0.665364756014 0.375886255979 0.331646945110 -0.522636560425 0.335404167603 -0.520645073773 0.665333614569 0.379686999666
0.458257111000 0.666724635409 0.375619399732 0.330171417117 -0.522144527531 0.333969891391 -0.519791909728 0.666059517959 0.379252079547
0.459590222000 0.668061311168 0.374706358587 0.328482561184 -0.521958127253 0.331811421027 -0.520291785772 0.667643545515 0.378293817183
0.460923333000 0.669256398463 0.373480473648 0.326367964204 -0.521683842722 0.330271342400 -0.520155525726 0.669127208783 0.377639871847
0.462256444000 0.670798461907 0.373058458772 0.325087632900 -0.521565710179 0.328613047981 -0.519758374609 0.670069655730 0.377266268499
0.463589555000 0.671632140168 0.372135563520 0.323087865005 -0.521162886324 0.327000007821 -0.519543233512 0.671529515737 0.376434207247
0.464922666000 0.673146097630 0.371304882738 0.321077584171 -0.521128537590 0.325593508557 -0.519350141357 0.672898454047 0.375676916458
0.466255777000 0.674524421510 0.370837021081 0.319725051950 -0.520763292782 0.324042868326 -0.519017120696 0.674015042711 0.375361798194
0.467588888000 0.675936931454 0.370397275647 0.318108150085 -0.520356551607 0.321771891193 -0.518599147436 0.675247271920 0.374619017247
0.468922000000 0.676895619623 0.369521499574 0.316293643148 -0.520201975939 0.320592125762 -0.518043606979 0.676243658738 0.374405896266
0.470255111000 0.678269534040 0.369033449307 0.314726065239 -0.519767111196 0.318778420004 -0.517789500314 0.677504071642 0.373809900773
0.471588222000 0.679524317656 0.367913269450 0.312874000686 -0.519675230350 0.316983173048 -0.517656897536 0.678894553168 0.372921426976
0.472921333000 0.681054159989 0.367062181428 0.311308180613 -0.519318004862 0.315371089543 -0.517552742246 0.680406525049 0.371975822751
0.474254444000 0.681888063487 0.366492803481 0.309807904913 -0.518696672154 0.313649860327 -0.516972590215 0.681754139032 0.371565356499
0.475587555000 0.683204169505 0.365940576764 0.307972125197 -0.518592910817 0.311911311859 -0.516470846678 0.682823422140 0.370610497768
0.476920666000 0.684145361175 0.364957044887 0.306201749574 -0.518210903416 0.310119681421 -0.516361741997 0.684144385721 0.370157164484
0.478253777000 0.685755246195 0.364035848788 0.304715313301 -0.517881767870 0.308559210011 -0.516053357207 0.685487404727 0.369554196484
0.479586888000 0.687592021123 0.363327052025 0.303233579089 -0.517689140654 0.307010041665 -0.515797507663 0.686569902751 0.368985057610
0.480920000000 0.688487404777 0.362648585772 0.301264224196 -0.517314469699 0.305158969140 -0.515471012065 0.688102563741 0.367972338128
0.482253111000 0.690153829467 0.361639742466 0.299657119004 -0.517264429204 0.303675278959 -0.515083762635 0.689078857713 0.367557873999
0.483586222000 0.690901191370 0.361210609638 0.298086241702 -0.516724308330 0.301824102398 -0.514528142707 0.690204841945 0.366693189918
0.484919333000 0.692047632055 0.360516055933 0.296254850554 -0.516100251306 0.300487942605 -0.514461176485 0.691393467173 0.366194606589
0.486252444000 0.693325370807 0.359464664605 0.294893947065 -0.515772331963 0.298707314888 -0.513798256160 0.692811402997 0.365409053930
0.487585555000 0.694768984841 0.359052511701 0.293162010633 -0.515483906656 0.297256429961 -0.513487524585 0.693849891432 0.364202123504
0.488918666000 0.695900413335 0.358298447613 0.291632801279 -0.514971449874 0.295812804424 -0.512881907419 0.695017288639 0.364019254173
0.490251777000 0.697120019869 0.357359464920 0.289866521594 -0.514677410045 0.294307887149 -0.512356199279 0.695950926007 0.363443038270
0.491584888000 0.698903395977 0.356651858270 0.288257718620 -0.514398587862 0.292936372031 -0.511820445838 0.697223943110 0.362601112356
0.492918000000 0.699607144553 0.356156234024 0.286834502021 -0.514239668706 0.291444462024 -0.511315877970 0.698335178406 0.361669583991
0.494251111000 0.701172214122 0.354819706201 0.284988829388 -0.513733439070 0.289857585038 -0.510894418320 0.699760708065 0.361284336125
0.495584222000 0.701936915785 0.354359941908 0.283495092010 -0.513047108860 0.288308914636 -0.510236838458 0.700878940750 0.360329398436
0.496917333000 0.703559164881 0.353807093893 0.282329801144 -0.512518281277 0.287067858782 -0.509959391748 0.702324755772 0.359713271319
0.498250444000 0.704181801205 0.352618878244 0.280188779394 -0.512122070440 0.285310441116 -0.509787403826 0.703545864021 0.358886643815
0.499583555000 0.705449587743 0.352578808050 0.278986062265 -0.511352076578 0.284119068156 -0.508828496234 0.704412203186 0.358615273267
0.500916666000 0.707317739360 0.351268636452 0.277078118288 -0.511233547503 0.282748031990 -0.508337757288 0.705171216371 0.357922558325
0.502249777000 0.708103144429 0.350487166304 0.275657598702 -0.510644957541 0.281096198960 -0.508008563308 0.706976562767 0.357174529995
0.503582888000 0.709489018713 0.350072016738 0.273955451780 -0.510065348966 0.279364907280 -0.507754857381 0.708443002404 0.356389464980
0.504916000000 0.709892578746 0.349321152266 0.272177115807 -0.509542345451 0.277791693215 -0.506652815345 0.709005474712 0.355401535223
0.506249111000 0.711379201520 0.348080312392 0.270649845739 -0.509017190173 0.276461459646 -0.506423097549 0.710518334156 0.354835322688
0.507582222000 0.713144006938 0.347519715989 0.269701225650 -0.508894860207 0.275152482246 -0.506072251639 0.712100750689 0.354478343335
0.508915333000 0.713952059223 0.346564546301 0.267580213177 -0.508093514089 0.273768531972 -0.505387588096 0.713037680516 0.353798790647
0.510248444000 0.714945688879 0.345909432240 0.266745095733 -0.507393778822 0.272016683426 -0.504704797527 0.714389984632 0.352925449412
0.511581555000 0.716365996530 0.344935715451 0.264782987069 -0.507121419321 0.270567603901 -0.504143434696 0.715185259801 0.351834358272
0.512914666000 0.717597652729 0.344018535001 0.263566455717 -0.506675817653 0.269362023022 -0.503720679393 0.716352665721 0.351688533477
0.514247777000 0.718575416660 0.343932945489 0.262399737590 -0.506020658911 0.267902514070 -0.503023021245 0.717695292146 0.350816781295
0.515580888000 0.719961394209 0.343122420321 0.260936275268 -0.505580620994 0.266649297014 -0.502279754500 0.718625988724 0.350660711981
0.516914000000 0.720596471106 0.342394540890 0.259354825805 -0.504785978710 0.264781048636 -0.501908741864 0.719860695904 0.349280024739
0.518247111000 0.722210483258 0.341574969790 0.258067375167 -0.504050059778 0.263418429412 -0.501251716399 0.721042161754 0.348282345279
0.519580222000 0.723244042225 0.340690849356 0.257006721633 -0.503706968671 0.262313767789 -0.500768986161 0.722609394234 0.348145608304
0.520913333000 0.724644190930 0.339775216715 0.255356709045 -0.503149584177 0.260713836400 -0.500360562431 0.723268955887 0.347296605830
0.522246444000 0.725617006207 0.339176459952 0.254302614537 -0.502510496030 0.259060101918 -0.499999952604 0.725160567628 0.346114234667
0.523579555000 0.726993468797 0.338246395551 0.252548879940 -0.502089871632 0.257908833537 -0.499230405945 0.726181342697 0.345198197283
0.524912666000 0.728320029255 0.337463473226 0.251363013952 -0.501599159222 0.256237300507 -0.498777488297 0.727490000682 0.344198573131
0.526245777000 0.729080848200 0.336529681148 0.250165480155 -0.501106655742 0.255390570333 -0.497965347416 0.727935910696 0.343515386855
0.527578888000 0.730362278380 0.335839009257 0.248851873631 -0.500381816740 0.254008138003 -0.497451851674 0.729688332579 0.342918078604
0.528912000000 0.731554689192 0.335007601068 0.247524538249 -0.499656738202 0.252897772039 -0.496770252211 0.730516479975 0.342381194619
0.530245111000 0.732608819345 0.334537317422 0.246251338199 -0.498866102293 0.251655840889 -0.496157376203 0.731495359078 0.341648554931
0.531578222000 0.733842423014 0.333719075584 0.245132449528 -0.498406506442 0.250356682711 -0.495371941228 0.732468811749 0.340867348090
0.532911333000 0.735109699535 0.332935220276 0.243540488086 -0.497881820874 0.249150573997 -0.494740065001 0.734272571729 0.340350186433
0.534244444000 0.736207476504 0.331736671762 0.242698865986 -0.497331268026 0.247901620993 -0.494188840528 0.735334348012 0.339693403969
0.535577555000 0.737297774764 0.331017191159 0.241378175463 -0.496579367874 0.246993205223 -0.493539999819 0.736183135747 0.338953559548
0.536910666000 0.738222779168 0.330400963184 0.240080299075 -0.495975101849 0.245650893628 -0.493106810243 0.737586121142 0.337990790960
0.538243777000 0.739405153296 0.329240800143 0.238811209794 -0.495230217073 0.244224568504 -0.492566191208 0.738756554051 0.337413623255
0.539576888000 0.740678680725 0.328723301463 0.237539137346 -0.494753954133 0.243313521923 -0.491816747495 0.739708184093 0.336693340069
0.540910000000 0.741362310538 0.328466655787 0.236755617708 -0.494054221888 0.241982403157 -0.491012174896 0.741189815374 0.335891385364
0.542243111000 0.742945854457 0.327349795498 0.235239038701 -0.493640184182 0.240674637787 -0.490496371684 0.742332347254 0.335042091101
0.543576222000 0.743852851270 0.326932139059 0.233886784516 -0.493053580944 0.239675071278 -0.489462407416 0.743306163456 0.334190979969
0.544909333000 0.744975400039 0.325642760187 0.232847970361 -0.492431909183 0.238187867370 -0.489336230482 0.744213098525 0.333748406513
0.546242444000 0.746070252964 0.325123284781 0.231615770668 -0.491767629537 0.237051971590 -0.488548394704 0.745459570724 0.332551645323
0.547575555000 0.747108601111 0.324256295472 0.230311959307 -0.491106575437 0.235999216232 -0.487855235934 0.746333106831 0.331456523204
0.548908666000 0.748303544667 0.323631828294 0.229503795829 -0.490748571307 0.234946866440 -0.487130876041 0.747029168986 0.330940980042
0.550241777000 0.749342911430 0.322265916825 0.227810922945 -0.490073385388 0.233663650887 -0.486612728095 0.748581530215 0.329856647712
0.551574888000 0.750381035411 0.321711226419 0.226938450815 -0.489574890133 0.232431166004 -0.486074939166 0.750327502687 0.328801847258
0.552908000000 0.751551412133 0.320807706516 0.225665456128 -0.488772933723 0.231343282273 -0.485355661145 0.750901908147 0.328191247894
0.554241111000 0.752894045496 0.319898114380 0.224514879014 -0.488375038993 0.230091569335 -0.484815073466 0.752264035865 0.326913753940
0.555574222000 0.754216567281 0.318994677876 0.223523251636 -0.487635883872 0.229097455541 -0.484278066620 0.753327779746 0.326624768186
0.556907333000 0.755019575711 0.318014714589 0.222165988636 -0.487140705955 0.228137604503 -0.483527128956 0.754219143603 0.325605016820
0.558240444000 0.756302998123 0.316987384252 0.221258326780 -0.486522466266 0.227042281276 -0.483118665499 0.755476680625 0.324781225879
0.559573555000 0.757265598696 0.315786202752 0.220017543397 -0.485881024486 0.225956207739 -0.482333879245 0.756869559638 0.323973454068
0.560906666000 0.758451344032 0.315475161161 0.218790661257 -0.485285891809 0.224532431561 -0.481574594941 0.757885727651 0.322840663256
0.562239777000 0.759334577918 0.314697914868 0.217878814614 -0.484465289088 0.223697078778 -0.480776021696 0.758848702187 0.322339767749
0.563572888000 0.760382022533 0.314427172815 0.217146675747 -0.484063823548 0.222751268630 -0.480253997001 0.759892007507 0.321564443092
0.564906000000 0.761647826633 0.313363405501 0.215829179138 -0.483344673413 0.221708731955 -0.479658627231 0.761058904309 0.320595485301
0.566239111000 0.762758121123 0.312154994582 0.214744755096 -0.482888028307 0.220592110653 -0.479181830687 0.762330555935 0.319578597277
0.567572222000 0.763718694257 0.311765309525 0.213852990040 -0.482098400203 0.219649979145 -0.478346425460 0.763184218201 0.319069978155
0.568905333000 0.764468037419 0.310580624682 0.212501105503 -0.481235270994 0.218745364456 -0.477879998351 0.764239833734 0.318226294700
0.570238444000 0.765721245203 0.309570035481 0.211883948933 -0.480528330981 0.217808441317 -0.477173084630 0.765484085874 0.317139328010
0.571571555000 0.767112828371 0.308610042745 0.210690821538 -0.480085831218 0.216760710070 -0.476478603294 0.766541130740 0.316285405500
0.572904666000 0.768135513857 0.308444706914 0.209936825463 -0.479298266488 0.215625677518 -0.475798640654 0.767441973028 0.315615148905
0.574237777000 0.769153173565 0.307067129594 0.208943551753 -0.478715457555 0.214561931220 -0.475374608274 0.768873855795 0.314566957514
0.575570888000 0.770342661458 0.306524430795 0.207755351841 -0.478201652080 0.213793583905 -0.474610190348 0.769632454794 0.313914834985
0.576904000000 0.771732348679 0.305604747613 0.206951689734 -0.477616069085 0.212649967295 -0.474211327318 0.770960894960 0.312909170061
0.578237111000 0.772184968259 0.304524302603 0.206006205540 -0.476906939610 0.211543757752 -0.473404777172 0.772087186873 0.311765733899
0.579570222000 0.773075138296 0.303912915494 0.204921274307 -0.476152110892 0.210658262171 -0.472824009912 0.772851420537 0.311437621072
0.580903333000 0.774462314319 0.302579859949 0.203877595198 -0.475866911378 0.210124300304 -0.472126209428 0.773886932935 0.310287939463
0.582236444000 0.775037193745 0.301916645892 0.202948035954 -0.474763417862 0.208724836073 -0.471403177346 0.774931926551 0.309172603108
0.583569555000 0.776307784483 0.301112224459 0.201943844334 -0.474459034503 0.207810965915 -0.470813926666 0.776174841103 0.308367447623
0.584902666000 0.777534868408 0.300228965402 0.201292872184 -0.473664199242 0.206818503228 -0.470053830705 0.777119525293 0.307058325147
0.586235777000 0.778215115850 0.299118819844 0.200205104550 -0.472960368171 0.205819619753 -0.469468228578 0.778382659449 0.306498180184
0.587568888000 0.779586440604 0.298006210244 0.199173547721 -0.472712843945 0.204834670035 -0.469175139889 0.779472350635 0.305368997588
0.588902000000 0.780635880131 0.297958545849 0.198438402905 -0.471996965793 0.204115655616 -0.467884889251 0.780342336390 0.304699298565
0.590235111000 0.781655649397 0.297115620437 0.197758009597 -0.471391411351 0.203010562446 -0.467326483793 0.781403670477 0.303648337551
0.591568222000 0.782064835734 0.295512290377 0.196322683398 -0.470783118202 0.202072683380 -0.466883757360 0.782699268909 0.302848733058
0.592901333000 0.783230417741 0.294913224633 0.195702347397 -0.469985965865 0.201337343315 -0.466265418596 0.783472108942 0.302249760911
0.594234444000 0.784272451807 0.293956532957 0.194868382840 -0.469433705143 0.200199375075 -0.465754685205 0.784510328741 0.301062763370
0.595567555000 0.785310035372 0.293091138951 0.193833086075 -0.468819642845 0.199322934830 -0.465059177036 0.785388946424 0.300226574726
0.596900666000 0.786372065492 0.292456574645 0.193203447749 -0.468197452032 0.198291947965 -0.464664243003 0.786873217274 0.299065606820
0.598233777000 0.787085847119 0.290998848145 0.191991647179 -0.467763158056 0.197279158346 -0.464201714031 0.787832149641 0.297906153901
0.599566888000 0.788373327558 0.289963724772 0.191306076316 -0.466979826660 0.196397079619 -0.463484281668 0.788740499193 0.297191761949
0.600900000000 0.789794910341 0.289142292923 0.190472556613 -0.466944351967 0.195859380924 -0.462673239768 0.789955755364 0.296615453322
0.602233111000 0.790198185285 0.288446268663 0.189697819602 -0.465949964312 0.195021302284 -0.461908891507 0.790657690165 0.295505764481
0.603566222000 0.791787705391 0.287841453777 0.189008451267 -0.465227545951 0.194335593517 -0.461765361564 0.791193902309 0.294816192483
0.604899333000 0.792440006230 0.286415583451 0.188122950393 -0.464614069196 0.192928593948 -0.460731716969 0.792565635580 0.293549160790
0.606232444000 0.793357958889 0.285052514808 0.186766700202 -0.464121672783 0.192107578158 -0.460299492361 0.793703350385 0.292286041426
0.607565555000 0.794456462998 0.284126522209 0.185974038691 -0.463461155822 0.191455497557 -0.459636862863 0.794983500872 0.291128818263
0.608898666000 0.795485964921 0.283203580907 0.185515880516 -0.462971519816 0.190657927361 -0.458839209115 0.795229272248 0.291022860350
0.610231777000 0.796088980791 0.282663158475 0.184536812145 -0.461984795351 0.189846630098 -0.458447086220 0.796279863738 0.289744835229
0.611564888000 0.797347765586 0.281662204189 0.183772617402 -0.461647089952 0.189128566432 -0.458079507536 0.797350905495 0.289018049995
0.612898000000 0.798057832597 0.281171407334 0.182928691915 -0.461009070384 0.188348037660 -0.457362461119 0.798183472459 0.287948924517
0.614231111000 0.799326312836 0.280148411465 0.182299739015 -0.460315454172 0.187360190105 -0.456840145098 0.799265107450 0.286909808550
0.615564222000 0.800226984578 0.278882330961 0.181535637223 -0.459885778001 0.186484141435 -0.455964111149 0.800432754570 0.286319406440
0.616897333000 0.800619167971 0.278822769156 0.180546927257 -0.459332804680 0.186035875003 -0.455734785729 0.801193725575 0.285251758213
0.618230444000 0.801967609372 0.277480180300 0.179704623539 -0.458670277537 0.184948486878 -0.455206548662 0.801919175653 0.284245180175
0.619563555000 0.802672902071 0.276230848461 0.178888905533 -0.457968631192 0.183970370625 -0.454601945143 0.803213585501 0.283105392988
0.620896666000 0.803701795037 0.275136210480 0.177914023325 -0.457715838510 0.183610327496 -0.454068141347 0.804165604610 0.282576294312
0.622229777000 0.804777659893 0.274860569950 0.177041443940 -0.456802616298 0.182503683826 -0.453979410722 0.804381426316 0.281333937381
0.623562888000 0.805949649626 0.273247108269 0.176475405092 -0.456469529434 0.182058716663 -0.453244325858 0.806065730948 0.280340728596
0.624896000000 0.806692541717 0.272281017053 0.175618931364 -0.455896647480 0.180862561553 -0.452506360960 0.806379435448 0.279489977729
0.626229111000 0.807264506016 0.271113825425 0.174738331439 -0.455362947993 0.180368599009 -0.451790799794 0.807362636281 0.278534287708
0.627562222000 0.808613802590 0.270741487260 0.173882303638 -0.454747010209 0.179531364193 -0.451312486162 0.808090966949 0.277653073140
0.628895333000 0.809369267486 0.269252812578 0.173327591888 -0.454309174738 0.178749818908 -0.450873762836 0.809503440473 0.277234889396
0.630228444000 0.810080172857 0.268975233471 0.172843497638 -0.453776577192 0.178051669261 -0.450254061797 0.809734118486 0.275960740891
0.631561555000 0.810968988546 0.267392525267 0.171771776235 -0.453259577117 0.177229972359 -0.449752025246 0.810460448401 0.274427301765
0.632894666000 0.812052300597 0.266560721126 0.170830658446 -0.452573065534 0.176335078895 -0.449379285212 0.812045402943 0.273951610557
0.634227777000 0.812234389941 0.265727543177 0.170249013869 -0.452196044299 0.175558498342 -0.448864257200 0.813110533830 0.272361403661
0.635560888000 0.813444761229 0.265184686614 0.169515944359 -0.451558427318 0.174732422812 -0.448367786160 0.813598634397 0.271546305705
0.636894000000 0.814853728564 0.263861948193 0.168385320828 -0.451215587835 0.173630464814 -0.447779088996 0.815738437269 0.269964741003
0.638227111000 0.814964467043 0.262628692294 0.168090421941 -0.450727771165 0.173190013949 -0.447117896417 0.815658657902 0.269954635463
0.639560222000 0.816170741480 0.261835397407 0.167000341884 -0.450156765545 0.172391354047 -0.446827602580 0.815913028784 0.268700379626
0.640893333000 0.816894215729 0.260540632793 0.166290445184 -0.449634120102 0.171322697901 -0.446495818955 0.817533314160 0.267761847655
0.642226444000 0.817791996988 0.259408642031 0.165798386531 -0.448995637417 0.170765660207 -0.445726823290 0.818078991599 0.266343544608
0.643559555000 0.818448938433 0.257750692851 0.164743483194 -0.448522561483 0.169982248310 -0.445522754744 0.818916232211 0.265623099124
0.644892666000 0.819605627781 0.257329677288 0.163998892769 -0.448143398120 0.169304708450 -0.444907852036 0.819902039075 0.264384712634
0.646225777000 0.820038045799 0.256931964633 0.163429158153 -0.447264557985 0.168759639457 -0.444293212145 0.819797392363 0.264160324814
0.647558888000 0.821357641771 0.255560686729 0.162732888085 -0.446854737291 0.167753840092 -0.444125186659 0.821259120880 0.262960123924
0.648892000000 0.821793072211 0.254440003860 0.162002525137 -0.446386415264 0.166869676206 -0.443627142361 0.822286728677 0.261519094290
0.650225111000 0.822365283636 0.253632751873 0.161299707012 -0.445902953704 0.166132661741 -0.443036812716 0.822866548264 0.260813450586
0.651558222000 0.823177829003 0.252997045879 0.160395644261 -0.445403397629 0.165457472412 -0.442340358505 0.823757643147 0.259714514991
0.652891333000 0.824031349042 0.251787173752 0.160219361166 -0.445140991534 0.164868465662 -0.442320977418 0.824361950700 0.258607560532
0.654224444000 0.825101213085 0.250510973165 0.159370759930 -0.444220433643 0.164122383647 -0.441705922480 0.825221135968 0.257859841482
0.655557555000 0.825684801483 0.249985492833 0.158473834960 -0.444077808191 0.163546432792 -0.441367820859 0.825775791228 0.257127622016
0.656890666000 0.826782642279 0.248708348367 0.157856018001 -0.443425643153 0.162432791621 -0.440921302945 0.827003568831 0.255437404454
0.658223777000 0.827622700030 0.247364396148 0.157019501889 -0.443049792751 0.161839196851 -0.440597656955 0.827633550556 0.255118158488
0.659556888000 0.828143129954 0.246458270615 0.156214013917 -0.442573751151 0.161144047468 -0.440078168818 0.828278257830 0.254038047602
0.660890000000 0.828996523043 0.246198570577 0.155489169360 -0.442241208121 0.160199117052 -0.439889659944 0.829139124347 0.253045358983
0.662223111000 0.829830014652 0.244962471678 0.154926441383 -0.441825364799 0.159518623671 -0.439377297397 0.829838532233 0.252075098746
0.663556222000 0.830446737289 0.244250458564 0.154193448477 -0.440986382053 0.158953885185 -0.438814484672 0.830160483349 0.251490307175
0.664889333000 0.831401702632 0.242764188762 0.153538424680 -0.440602757729 0.158013446183 -0.438707095840 0.831363995591 0.250424186231
0.666222444000 0.831976931654 0.242324895184 0.152796890767 -0.440398092436 0.157314370703 -0.438231287047 0.831895619221 0.248906959474
0.667555555000 0.832432658940 0.241144192781 0.151858124883 -0.439727285674 0.156531952744 -0.437602974781 0.832543348135 0.248309666952
0.668888666000 0.833084709984 0.240388861252 0.151479959554 -0.439394629080 0.155968572573 -0.437391418271 0.833268935252 0.247712180695
0.670221777000 0.833683250513 0.239780482970 0.150683587948 -0.438620661270 0.155076810436 -0.436950601818 0.833683047522 0.246711945784
0.671554888000 0.834264101660 0.238482459006 0.149944076988 -0.438505425107 0.154338133854 -0.436378923444 0.834354100181 0.245374132065
0.672888000000 0.835416963036 0.237771041074 0.149314607012 -0.438296152886 0.153740107377 -0.436285262398 0.835596367045 0.244420686769
0.674221111000 0.835925960519 0.236516717429 0.148453234911 -0.437653031743 0.152774114641 -0.435908847153 0.836351989746 0.243574300098
0.675554222000 0.836483761358 0.235822160946 0.147791348682 -0.437078678107 0.152301729527 -0.435392158632 0.836720640643 0.242967642066
0.676887333000 0.837096847411 0.234781537006 0.147141115142 -0.436567034271 0.151523620830 -0.434800898266 0.837444662589 0.242019751193
0.678220444000 0.837992629524 0.233898842427 0.146270485806 -0.436177347351 0.150592317782 -0.434768308094 0.838313072032 0.241162884974
0.679553555000 0.838345370128 0.232784654832 0.145539149919 -0.435726099267 0.149624378869 -0.434321721903 0.838733713769 0.239983914731
0.680886666000 0.839236017391 0.232122948439 0.144746735663 -0.435235566750 0.149013293893 -0.434055016778 0.839442228206 0.239454989824
0.682219777000 0.839808181257 0.230784128004 0.143931185509 -0.434811249590 0.148134464126 -0.433573876867 0.840328708611 0.238279820360
0.683552888000 0.840256005688 0.230078331677 0.143168628944 -0.434380971091 0.147515261417 -0.433154842056 0.840788590477 0.237409650831
0.684886000000 0.840790930152 0.229260721762 0.142573631689 -0.433758521767 0.146908029279 -0.432626858680 0.841488694903 0.236916508570
0.686219111000 0.841789148723 0.228530953293 0.142097349087 -0.433592014409 0.146197803760 -0.432271750674 0.842086677629 0.235901965150
0.687552222000 0.842067466402 0.227721625307 0.141318432449 -0.432986255307 0.145275348649 -0.432017805202 0.842512205530 0.235147264656
0.688885333000 0.842565714730 0.226588170122 0.140212124950 -0.432769400630 0.144428323224 -0.431481086240 0.843597878192 0.234486904830
0.690218444000 0.843408819365 0.225513486434 0.139577644418 -0.432180958559 0.143668482348 -0.431208000215 0.844145805601 0.233795742198
0.691551555000 0.844056452768 0.224623259289 0.138722282221 -0.431783700027 0.142648454846 -0.430652551631 0.844369732508 0.232692160198
0.692884666000 0.844480324044 0.223627419288 0.137852849688 -0.431448468799 0.142024650441 -0.430406664804 0.845200600154 0.231561251980
0.694217777000 0.844972687803 0.222797259331 0.137041657075 -0.431043475923 0.140904845990 -0.429943136989 0.845613378805 0.231079134331
0.695550888000 0.845659870003 0.221960709840 0.136639613326 -0.430523451613 0.140302564792 -0.429678873840 0.846375814696 0.230001462646
0.696884000000 0.846395355739 0.221398142616 0.135807470073 -0.430058735234 0.139479463137 -0.428994395022 0.846816779726 0.229344726896
0.698217111000 0.846516710945 0.220085404950 0.134756274037 -0.429572721777 0.138626457656 -0.428565279566 0.847401220024 0.228345499359
0.699550222000 0.847584437360 0.218877812450 0.134295658196 -0.429726262018 0.137901265143 -0.428466441559 0.848406794132 0.227080886151
0.700883333000 0.848129795326 0.218688607222 0.133502225742 -0.428737120209 0.137379864830 -0.427768936629 0.849131402307 0.226603222256
0.702216444000 0.849241423163 0.217486694951 0.132454373347 -0.428350951393 0.136099419035 -0.427551224025 0.849208431134 0.225759698403
0.703549555000 0.849232075140 0.216494209076 0.131678406833 -0.427944653034 0.135291735738 -0.426976350778 0.849618670982 0.225162474404
0.704882666000 0.850092780324 0.215345054725 0.131011041506 -0.427738936940 0.134725031888 -0.426661029163 0.850806906676 0.224332750626
0.706215777000 0.849964540292 0.214556001606 0.129817623974 -0.427036594341 0.133911012395 -0.426317859448 0.850757853704 0.222930800608
0.707548888000 0.850830613135 0.213737732351 0.129469943876 -0.426701764663 0.132826358518 -0.425501290110 0.850998208358 0.222588370456
0.708882000000 0.851706876929 0.213338929151 0.128786962088 -0.425866910223 0.132570776385 -0.425344043998 0.852708068236 0.221795381438
0.710215111000 0.851951338828 0.212469071001 0.128092865108 -0.425558096829 0.131561670240 -0.425165114202 0.852998978288 0.220920542817
0.711548222000 0.852623988835 0.211512278471 0.127387266309 -0.425270636732 0.130704655804 -0.424990702565 0.853542852203 0.220079879648
0.712881333000 0.853397358969 0.210620417864 0.126665359258 -0.424748478300 0.130219637869 -0.424181025829 0.854037408981 0.219875394010
0.714214444000 0.853685531495 0.209183046038 0.125813229258 -0.424171468196 0.128798296764 -0.423473620579 0.853521712297 0.219425437307
0.715547555000 0.854811171416 0.208822176774 0.124648009963 -0.423749292051 0.127978809985 -0.423072645383 0.854301555875 0.218315967829
0.716880666000 0.854738243799 0.207563406982 0.123904612209 -0.423463371886 0.127259192999 -0.423183721400 0.855747031154 0.216621245652
0.718213777000 0.855177041449 0.207404530536 0.123360850641 -0.422381458064 0.126524295064 -0.422167410977 0.855670372845 0.216720703023
0.719546888000 0.856205666406 0.206677049205 0.122589426945 -0.422021792719 0.125668522347 -0.421985087519 0.856262854127 0.215517078278
0.720880000000 0.856112954832 0.205403450971 0.121810514505 -0.421788839118 0.124924486161 -0.421395642266 0.856969124664 0.214672860819
0.722213111000 0.856735141506 0.204879332147 0.120608655545 -0.421238362491 0.124106316757 -0.420751145322 0.856582057426 0.213949911018
0.723546222000 0.857172461683 0.203626459214 0.120078241986 -0.420452244183 0.123503279374 -0.420428196179 0.857771064149 0.212363608986
0.724879333000 0.857797012741 0.202416328907 0.119449896109 -0.420185450601 0.122296069431 -0.420069908053 0.858361736404 0.211960468873
0.726212444000 0.857414703988 0.202615149835 0.118670591680 -0.419601668644 0.121851323061 -0.419322605501 0.859429511010 0.211927977697
0.727545555000 0.858714681893 0.201519566339 0.117624017195 -0.419001511082 0.120704263100 -0.419006247928 0.859098932220 0.210597086051
0.728878666000 0.859310476474 0.199735816706 0.116921547734 -0.418515085074 0.120003997936 -0.418431485038 0.860263091939 0.209689233773
0.730211777000 0.859885425193 0.198713536719 0.115900494469 -0.418159872645 0.119157583089 -0.417839114246 0.860216548807 0.208565675224
0.731544888000 0.860482962913 0.198351272289 0.115535558944 -0.417514637178 0.118522198507 -0.417512319958 0.860606362127 0.208143118157
0.732878000000 0.861385917379 0.197869757142 0.114443268703 -0.417341527819 0.118033215086 -0.416769021118 0.861103472016 0.207691931795
0.734211111000 0.861021925276 0.197371643408 0.113914241893 -0.416406711039 0.117146082323 -0.416332498441 0.861529662323 0.206562246222
0.735544222000 0.862231763833 0.195915765814 0.113020055566 -0.416139337094 0.116602092521 -0.416008891017 0.861957433215 0.206210745650
0.736877333000 0.862136757760 0.195297947723 0.112093557836 -0.415565220427 0.115749850801 -0.415395150688 0.863014780845 0.205049468749
0.738210444000 0.862349897716 0.194069910372 0.111121395488 -0.414974442720 0.114919857444 -0.415082151963 0.863751808474 0.204390797598
0.739543555000 0.863409580342 0.192963634705 0.110936320416 -0.414729876221 0.113851220330 -0.414409071518 0.864198163071 0.204163364994
0.740876666000 0.863065319703 0.192471458179 0.109643540940 -0.413737869595 0.113135125878 -0.413562229080 0.864130287578 0.203220084993
0.742209777000 0.863414694035 0.192236005956 0.109461426851 -0.413371707728 0.112177764577 -0.413271197054 0.864810555887 0.201977889710
0.743542888000 0.864211014121 0.191695348628 0.108404972203 -0.412996345378 0.111774942840 -0.412616416624 0.865634623073 0.201122182970
0.744876000000 0.865038927190 0.190191845389 0.107513957268 -0.412284108845 0.111109849590 -0.412093701713 0.865804841655 0.201329828239
0.746209111000 0.864748761291 0.189685924831 0.107029544619 -0.411710635163 0.110378725154 -0.411596828773 0.865879367631 0.199823262010
0.747542222000 0.865021533771 0.189268807395 0.106392774150 -0.410729061388 0.109249280933 -0.410858259993 0.866729068505 0.199068850507
0.748875333000 0.865941952917 0.188266551419 0.105498681429 -0.410649077940 0.108730585410 -0.410445750834 0.867238102811 0.198547118639
0.750208444000 0.866489829917 0.187648050435 0.104991932927 -0.409989818791 0.108471762715 -0.409748282287 0.867862456329 0.197901226636
0.751541555000 0.866911416208 0.186648542371 0.104507464294 -0.409577215494 0.107339881220 -0.409468373595 0.868578241878 0.196504521635
0.752874666000 0.867059713600 0.186612380520 0.103810046931 -0.408797625079 0.106638516943 -0.408676778619 0.868581678074 0.195725776521
0.754207777000 0.867418352718 0.184937766726 0.102853779507 -0.408306773187 0.105491905006 -0.408147098839 0.869489604601 0.194207895757
0.755540888000 0.867764089189 0.183740712327 0.102082884640 -0.407774056100 0.104999770594 -0.407679371053 0.869415339480 0.194827160601
0.756874000000 0.868230817613 0.182771994088 0.101182950039 -0.407334643455 0.104346247133 -0.406984904436 0.870555712988 0.193580635692
0.758207111000 0.868778960801 0.183110765371 0.100641910244 -0.406464793354 0.103722483715 -0.406451920118 0.870724670419 0.192172697415
0.759540222000 0.869432984101 0.181934682738 0.099955491014 -0.406201008671 0.103231508774 -0.405806494559 0.870788418817 0.191889605560
0.760873333000 0.870150099736 0.180400288379 0.099060976569 -0.405579165980 0.102418038877 -0.405360254697 0.871830700871 0.191128981689
0.762206444000 0.870641283539 0.180225022672 0.098548259681 -0.405013932755 0.101878514841 -0.404601251475 0.872446468835 0.190402662667
0.763539555000 0.870869554166 0.179448790455 0.098071516022 -0.404616888436 0.100942724254 -0.404093045372 0.873206442645 0.189212870745
0.764872666000 0.871732030723 0.178242501546 0.097159621476 -0.403775379986 0.100552260201 -0.403646894037 0.873461022508 0.189526672417
0.766205777000 0.871523133721 0.177927227135 0.096742667595 -0.403454168530 0.099946539822 -0.403261215629 0.874282244373 0.187847269330
0.767538888000 0.872040406047 0.176889123567 0.096016818005 -0.402735044816 0.098759653179 -0.402591842415 0.874625029336 0.186617845793
0.768872000000 0.871975377539 0.176553318241 0.095276245932 -0.402085425339 0.098289125053 -0.402041521135 0.874649856110 0.186169803523
0.770205111000 0.872432535739 0.176154536671 0.094885319498 -0.401585619256 0.097460259362 -0.401224355184 0.875036642004 0.185699242317
0.771538222000 0.873465317866 0.175278708868 0.094078026274 -0.401140493213 0.096978260987 -0.400574612627 0.875425918294 0.184771433783
0.772871333000 0.873524664328 0.174442328854 0.093509704506 -0.400411258768 0.096279342925 -0.399997287562 0.875695515121 0.184343348333
0.774204444000 0.874511776225 0.173489521805 0.092685850239 -0.399885326402 0.095552449802 -0.399254723651 0.876521723024 0.182876131965
0.775537555000 0.874759417363 0.172929268128 0.092226182247 -0.399428564219 0.094757593978 -0.398852728953 0.877229295525 0.182407923636
0.776870666000 0.875561577777 0.171908389307 0.091542108784 -0.398875707905 0.094194854292 -0.398238704647 0.877640753073 0.181448637894
0.778203777000 0.875105330052 0.171033048249 0.090612709886 -0.398093642822 0.093760809259 -0.397568024613 0.877811142922 0.180198630455
0.779536888000 0.875613141200 0.170853359961 0.090361713173 -0.397579807086 0.093219897001 -0.396981712699 0.878278680793 0.180187896589
0.780870000000 0.875713648141 0.170277509993 0.089936244265 -0.396961085012 0.092408668860 -0.396291534066 0.879137299361 0.178857218076
0.782203111000 0.876196482626 0.169107235067 0.089092075498 -0.396372037197 0.092020181520 -0.395670816242 0.879440834438 0.178285385040
0.783536222000 0.876506315676 0.168572940739 0.088329018608 -0.395903391580 0.091256972382 -0.395016207818 0.879626979880 0.177418746380
0.784869333000 0.877273602777 0.167412271842 0.087745447234 -0.395422436750 0.090566127291 -0.394451071927 0.879874375288 0.177663069412
0.786202444000 0.877367836171 0.167393718592 0.087291760752 -0.394728744697 0.089948204783 -0.393720288851 0.880346486900 0.176245228522
0.787535555000 0.878353921749 0.166869172093 0.086941046811 -0.394072740637 0.089659444793 -0.393072607830 0.880997999409 0.175526462885
0.788868666000 0.878466221523 0.165417728950 0.086127137571 -0.393424988344 0.089101370968 -0.392678811928 0.881391842500 0.174816860434
0.790201777000 0.879128412136 0.165305801115 0.085669021655 -0.393098716160 0.088273535775 -0.392083617234 0.881729048425 0.173891853178
0.791534888000 0.879502723541 0.164296587144 0.084873921127 -0.392308347576 0.087834709400 -0.391110801390 0.882018838598 0.172995755354
0.792868000000 0.879877528053 0.163985530267 0.084473829465 -0.391950826929 0.087446340948 -0.390926633893 0.882723749858 0.171949918847
0.794201111000 0.880222503009 0.163457222805 0.083769804500 -0.391271164012 0.086617062884 -0.390148098135 0.882937948074 0.170724382755
0.795534222000 0.881212214224 0.162240219643 0.083105243407 -0.391015149202 0.086124596706 -0.389641759095 0.883461958595 0.169856505385
0.796867333000 0.881348301802 0.161389116409 0.082454155155 -0.390192568745 0.085837132902 -0.389162011098 0.884086700986 0.169319688873
0.798200444000 0.881520635559 0.160722731953 0.081692863803 -0.389696064834 0.085134787949 -0.388332124806 0.884428657777 0.168626896616
0.799533555000 0.882243999368 0.160407189003 0.081307969153 -0.389177860651 0.084379889836 -0.387724095841 0.885095067197 0.167308091311
0.800866666000 0.882601220923 0.159661591015 0.080535976212 -0.388518729237 0.083949277890 -0.387378239684 0.885395004858 0.166863401333
0.802199777000 0.883382665937 0.158853776723 0.080044747131 -0.387877326585 0.083329495641 -0.386320956484 0.885763108273 0.166082574623
0.803532888000 0.883523308265 0.158132133342 0.079564323458 -0.387306523278 0.083063738951 -0.385854688983 0.886392011122 0.165447699795
0.804866000000 0.883918803630 0.157293696194 0.078828530140 -0.386710342180 0.082284907183 -0.385294443456 0.886931787765 0.164248785505
0.806199111000 0.884451350126 0.156588057600 0.078436561420 -0.386204843627 0.081840735576 -0.384816786209 0.887608874533 0.163422259426
0.807532222000 0.884946971862 0.155866396235 0.077991306176 -0.385803520526 0.081296455731 -0.383934905452 0.887579372626 0.162287401256
0.808865333000 0.885427237113 0.154977256635 0.077286698434 -0.384878017489 0.080864745734 -0.383551790218 0.888145523140 0.161594241721
0.810198444000 0.885732611003 0.154387952865 0.076594509754 -0.384413340859 0.080407613127 -0.382855341480 0.888317707633 0.161238273729
0.811531555000 0.886287330152 0.153309811480 0.076206797933 -0.383853792272 0.079805380476 -0.382362315170 0.888951053443 0.160255119104
0.812864666000 0.886560092831 0.152366141580 0.075767620175 -0.383248155209 0.079382684991 -0.381708609358 0.889749552511 0.159157059409
0.814197777000 0.886793401173 0.151745266047 0.075135598353 -0.382581395564 0.078932940404 -0.380809027348 0.889242677398 0.158724219978
0.815530888000 0.887630932023 0.150601175039 0.074503569551 -0.382201701316 0.078335422406 -0.380395927378 0.890028777177 0.157941074612
0.816864000000 0.887625918265 0.149582599441 0.073886222298 -0.381309132146 0.077946295123 -0.379930525321 0.890922792532 0.157101565711
0.818197111000 0.888375361255 0.149084606878 0.073746665078 -0.380758696842 0.077518462560 -0.379266794635 0.891126576642 0.156372297839
0.819530222000 0.888831283981 0.148061519198 0.073306203401 -0.380492228805 0.076790204555 -0.378658290888 0.891241143021 0.154975894704
0.820863333000 0.888972561142 0.147378050302 0.072735287922 -0.379725293953 0.076362501897 -0.378119409078 0.892337542401 0.154734036925
0.822196444000 0.889538236011 0.146454237470 0.072468720493 -0.378980644627 0.075884557266 -0.377192124031 0.891863565910 0.154002671497
0.823529555000 0.890055112167 0.146018941308 0.071897342148 -0.378261349005 0.075629600810 -0.376868550510 0.892885759024 0.153386754806
0.824862666000 0.890548091117 0.145113248343 0.071685023910 -0.377861124643 0.074910141575 -0.376282530696 0.892899607153 0.152558585073
0.826195777000 0.891185129370 0.143807277277 0.071087198745 -0.377313680447 0.074370148118 -0.375830353545 0.893655060602 0.150924231566
0.827528888000 0.891130656985 0.143715669382 0.070626952131 -0.376843474468 0.074104986884 -0.375204848623 0.893813307764 0.150999613097
0.828862000000 0.891852601329 0.143014237889 0.070095756928 -0.376147911643 0.073414743780 -0.374813230095 0.894428160230 0.149348334750
0.830195111000 0.892295537290 0.142387683702 0.069737803137 -0.375518562779 0.073072719127 -0.374035413999 0.895319356623 0.148585355973
0.831528222000 0.892779927623 0.141588458789 0.069494925335 -0.374897104249 0.072781319935 -0.373561164393 0.895615471329 0.148185876921
0.832861333000 0.892694036570 0.140570330817 0.069097607301 -0.374174339247 0.072197187441 -0.372948129619 0.896118018842 0.147061002060
0.834194444000 0.893267352631 0.139845160556 0.068349276986 -0.374030633228 0.071799915893 -0.371994917954 0.895548154623 0.146722893304
0.835527555000 0.894206386060 0.139888423076 0.068076073332 -0.373128419919 0.071857891471 -0.371925383769 0.897494593923 0.146220973627
0.836860666000 0.894818298778 0.138990352721 0.067560704068 -0.372978245225 0.070864046919 -0.371092996155 0.896872782637 0.144000021683
0.838193777000 0.895249669857 0.138105198114 0.067136988820 -0.372306141848 0.070525234860 -0.370314259831 0.897358181263 0.143460069471
0.839526888000 0.895937838406 0.137263057355 0.066788015884 -0.371558729046 0.070146124720 -0.369854059579 0.898534902399 0.143516753976
0.840860000000 0.895979842139 0.136262897694 0.066104940988 -0.370969524950 0.068980436157 -0.369352883563 0.898969648526 0.140868470306
0.842193111000 0.897006433585 0.135444261131 0.066173558381 -0.370636990772 0.069008831500 -0.368609593851 0.899282257321 0.141247682217
0.843526222000 0.897046941712 0.135173638845 0.065521126812 -0.370030788006 0.068352830698 -0.368115086753 0.899824244429 0.139768184060
0.844859333000 0.897421545678 0.134000137836 0.065076453868 -0.369223509327 0.068185434592 -0.367529848035 0.899323497428 0.139949285596
0.846192444000 0.898119932373 0.133075854987 0.064659135918 -0.368883174746 0.067690062005 -0.366761618629 0.900029496346 0.138715625967
0.847525555000 0.898620543123 0.131894373500 0.064053822911 -0.368188464015 0.067505421967 -0.366426065627 0.900798867955 0.137866544389
0.848858666000 0.898228563928 0.131362658953 0.063745658034 -0.367470712019 0.066946182273 -0.365923900948 0.901343637477 0.136300045365
0.850191777000 0.899572919498 0.130620918018 0.063331671717 -0.367190113020 0.066174817533 -0.365245784575 0.901967826678 0.134363445962
0.851524888000 0.900272456539 0.129140966194 0.062624117346 -0.366557810929 0.066286591426 -0.364600572869 0.901100186414 0.135274014044
0.852858000000 0.900221705372 0.129552318545 0.062426087995 -0.366021503223 0.065768252826 -0.364079431163 0.901678333256 0.134084231928
0.854191111000 0.900205280409 0.127335542724 0.061671900163 -0.365247253612 0.065455681787 -0.363483796259 0.902637532265 0.134655141612
0.855524222000 0.900522608690 0.126672699657 0.061407860163 -0.364989189481 0.065277897452 -0.363073807615 0.902948824884 0.133543503905
0.856857333000 0.901665623812 0.127244632074 0.061252819681 -0.364298043273 0.064739923549 -0.362451081271 0.903544393977 0.131368738676
0.858190444000 0.901895747465 0.126077434436 0.060796575459 -0.363627230221 0.064931714436 -0.362018945205 0.904511021289 0.131682142501
0.859523555000 0.902159928584 0.124484701589 0.060657568870 -0.362883831214 0.064502947433 -0.360917084870 0.903447733130 0.131109963779
0.860856666000 0.904225541574 0.124023379514 0.060108042082 -0.363183462960 0.063775091890 -0.360958648206 0.904761044723 0.129296033194
0.862189777000 0.902879132122 0.123980815331 0.060072262692 -0.362165388294 0.063557916709 -0.360591783363 0.906495765219 0.128594795657
0.863522888000 0.904193085498 0.122307668699 0.059744849769 -0.361929098829 0.063237128398 -0.359805238666 0.906251716482 0.127868234547
0.864856000000 0.903219201880 0.121690698653 0.059139582858 -0.361170361573 0.062743712667 -0.358987190541 0.905498434793 0.126849785218
0.866189111000 0.904918129768 0.121547108123 0.058910481157 -0.360591026327 0.062299764194 -0.358585914045 0.906458813924 0.126439102254
0.867522222000 0.904961234131 0.119880882404 0.058348117865 -0.359908035623 0.061629599926 -0.357856437729 0.906055151529 0.125219545822
0.868855333000 0.905490525273 0.119175866451 0.058052110371 -0.359170612570 0.061512442274 -0.357311607159 0.907587200880 0.124336278924
0.870188444000 0.906572170421 0.117945247729 0.057856539068 -0.359409129033 0.060993976585 -0.357007679816 0.908134522696 0.124101993683
0.871521555000 0.906829709595 0.117365013274 0.057545231449 -0.358633111869 0.060827498974 -0.356348658308 0.908187104621 0.122595018865
0.872854666000 0.907193092414 0.115552590556 0.056919969253 -0.358093512992 0.060356273494 -0.355977910801 0.908565180169 0.121167953820
0.874187777000 0.907279007550 0.114903837003 0.056796212975 -0.357614487413 0.060282349546 -0.354956506363 0.908044118008 0.121178227279
0.875520888000 0.907834394388 0.113337405910 0.056229296687 -0.357083249712 0.059796717577 -0.354393010173 0.909053823381 0.119615334730
0.876854000000 0.907315418922 0.113718647578 0.056399587695 -0.356506493331 0.059704603161 -0.354014426480 0.909701970478 0.119147044012
0.878187111000 0.907884577188 0.112480554056 0.055999644053 -0.355732271147 0.059455197671 -0.353367475462 0.909357814958 0.118823963124
0.879520222000 0.907830906955 0.112204465415 0.055805215904 -0.355448307412 0.059280746999 -0.352782160529 0.909723507286 0.117980243564
0.880853333000 0.909638011643 0.111192575974 0.055534578871 -0.355191835117 0.058554189876 -0.352240858722 0.910007513023 0.116101474503
0.882186444000 0.908964606195 0.110360799755 0.055158448291 -0.354381747390 0.058247045484 -0.351852837757 0.911200614430 0.115975411090
0.883519555000 0.909623721818 0.110141825761 0.055226467239 -0.353954629478 0.058087325306 -0.351214643062 0.911314720529 0.115294735509
0.884852666000 0.909897128189 0.109048939813 0.054965031622 -0.353423768426 0.058013387758 -0.350588295791 0.911644860911 0.114974993590
0.886185777000 0.911124494809 0.108317790587 0.054422549813 -0.353220941577 0.057459713456 -0.350265628835 0.912198303500 0.113290705308
0.887518888000 0.910231852609 0.107545886283 0.054052360815 -0.352417568514 0.056794778885 -0.349591275083 0.912463712565 0.112021452371
0.888852000000 0.910932526492 0.107011776603 0.054127092356 -0.352024530320 0.056781005363 -0.349253067631 0.912728017562 0.111963870906
0.890185111000 0.911612800196 0.105782440534 0.053448329647 -0.351752303852 0.056470011162 -0.348860517524 0.912735630128 0.110345577796
0.891518222000 0.912281661314 0.104973478448 0.053196717856 -0.351253522271 0.055890443292 -0.348217826395 0.913184415052 0.110044216616
0.892851333000 0.911536360709 0.105156105098 0.053280742338 -0.350712698349 0.055668559282 -0.347536935803 0.913585563690 0.109044065944
0.894184444000 0.912315558844 0.102818567915 0.052379716672 -0.350261679571 0.055402196657 -0.347262200819 0.913984254964 0.108173778800
0.895517555000 0.912100031452 0.102958332030 0.052542988372 -0.349466659166 0.055178761692 -0.346577648550 0.914368448244 0.107209294291
0.896850666000 0.913662926236 0.101974995754 0.052005820595 -0.349437677552 0.054988283408 -0.346224014874 0.914578844157 0.106751069240
0.898183777000 0.914460782110 0.100098147188 0.051513204367 -0.348989901015 0.054879434216 -0.345741332707 0.914925001375 0.105739447489
0.899516888000 0.913867234358 0.100181210995 0.051303849237 -0.348209134474 0.054462358144 -0.345197363434 0.915124774684 0.104454806044
0.900850000000 0.915097448586 0.098259200916 0.049087298735 -0.347894078874 0.053064236539 -0.344716707631 0.915885193145 0.103801374722
0.902183111000 0.914020465135 0.099569800344 0.049741004913 -0.347220269659 0.052943353449 -0.344482708470 0.915866946130 0.103724119877
0.903516222000 0.915274951842 0.098125460376 0.049048687783 -0.347058203510 0.052726409472 -0.343613756094 0.915978776148 0.102227232479
0.904849333000 0.915786895303 0.096598819344 0.048733196670 -0.346577439941 0.052476162806 -0.343306870656 0.916507294691 0.101489657705
0.906182444000 0.916319374291 0.096213946597 0.048602952805 -0.346070388681 0.052175793439 -0.343024975647 0.916835859961 0.100623189222
0.907515555000 0.916421742894 0.094543126220 0.047929417203 -0.345615263770 0.051893470143 -0.342543350893 0.917530692581 0.099668163510
0.908848666000 0.916135501463 0.094849956597 0.047988977792 -0.344942033454 0.051575410786 -0.341983194198 0.917732464216 0.099149327937
0.910181777000 0.917189246935 0.092964963768 0.047643507818 -0.344780150239 0.051374245514 -0.341490024264 0.918271357864 0.098223655505
0.911514888000 0.917124021991 0.092770984654 0.047394433557 -0.344267796939 0.051228540812 -0.341190498896 0.918395072052 0.097578965452
0.912848000000 0.918445718044 0.091279053045 0.046980881790 -0.344000004234 0.050842571598 -0.340854777299 0.918680970371 0.096795671959
0.914181111000 0.917107638199 0.091783711457 0.047250818107 -0.342986466594 0.050662304169 -0.340110168213 0.918447823615 0.096165845790
0.915514222000 0.919453396898 0.091620793497 0.046794280182 -0.343107826974 0.050470861989 -0.339767972210 0.919032037231 0.095467254707
0.916847333000 0.917995170111 0.089443811275 0.046184712533 -0.342267895102 0.050057637773 -0.339398876070 0.919486642853 0.093824008924
0.918180444000 0.917918338308 0.088817137874 0.045943003833 -0.341688784294 0.049507896444 -0.339124230972 0.920011315188 0.093216442452
0.919513555000 0.919686050165 0.088166198268 0.045578697629 -0.341484769867 0.049309547672 -0.338610346395 0.919949289317 0.092490121841
0.920846666000 0.919644224047 0.087214420571 0.045509021133 -0.340870210021 0.049116808776 -0.338302846897 0.920805957458 0.091846402259
0.922179777000 0.920483757633 0.087162127608 0.045313786299 -0.340972825862 0.048778986264 -0.337703554688 0.920466184525 0.091022184251
0.923512888000 0.919897787647 0.086030110330 0.045038635283 -0.340130342480 0.048612612758 -0.337325118017 0.921084667666 0.090569874244
0.924846000000 0.920077137905 0.085376265565 0.044848096338 -0.339465366724 0.048363413493 -0.336904284903 0.921335695658 0.089394297623
0.926179111000 0.920434188396 0.084350198847 0.044503816920 -0.339114217702 0.048254570572 -0.336469348753 0.921976377853 0.088652441607
0.927512222000 0.921002799412 0.083227591444 0.044108820129 -0.338797161229 0.047702448597 -0.336342386809 0.922129026650 0.087836774171
0.928845333000 0.921222051992 0.082874574374 0.043985535967 -0.338402021764 0.047465358071 -0.335876459687 0.922640662528 0.086461784476
0.930178444000 0.921624532580 0.081669131656 0.043617645490 -0.337801553574 0.047188737456 -0.335422413778 0.922284630862 0.086463496905
0.931511555000 0.922369189583 0.081206648099 0.043357266269 -0.337518917015 0.047036206223 -0.334943094029 0.922746535803 0.085466206797
0.932844666000 0.922450852716 0.080488427275 0.043210980867 -0.337024201350 0.046767127050 -0.334665785727 0.922934977820 0.084728117919
0.934177777000 0.922521225378 0.079350672492 0.042715638501 -0.336541623936 0.046529253182 -0.334138250932 0.922905372428 0.083450623428
0.935510888000 0.923055764676 0.078339978274 0.042348525204 -0.336215301668 0.046495259268 -0.333809058133 0.924006574235 0.082550848050
0.936844000000 0.923226390787 0.077867411100 0.042232231894 -0.335780872958 0.046207540806 -0.333346953434 0.923804687812 0.082779495398
0.938177111000 0.922876649633 0.077158173334 0.041863401015 -0.335374566645 0.045768756620 -0.332958943960 0.923687640222 0.081433154206
0.939510222000 0.923494984915 0.076122292308 0.041527136647 -0.334891950726 0.045599271515 -0.332641804600 0.924245449827 0.080873189069
0.940843333000 0.923994395848 0.075462689600 0.041248939607 -0.334516471906 0.045226727800 -0.332389730838 0.925199058579 0.079641357928
0.942176444000 0.923996531786 0.074956210261 0.041112338361 -0.333909395474 0.045057353610 -0.331996603506 0.925452167020 0.079505941271
0.943509555000 0.924426805178 0.073965903849 0.040851313307 -0.333737962691 0.044653618540 -0.331857542157 0.926099489876 0.078313822074
0.944842666000 0.924495651768 0.073008296984 0.040313612363 -0.333174818027 0.044269221721 -0.331202457598 0.925951151896 0.077039807683
0.946175777000 0.924874447177 0.072138295592 0.040190177242 -0.332771109450 0.044124432616 -0.330932313085 0.926106238383 0.076903234247
0.947508888000 0.924931002871 0.071395169882 0.039997890458 -0.332335223558 0.043772538085 -0.330432059295 0.925255071919 0.076505825591
0.948842000000 0.925161691935 0.070526748140 0.039966945712 -0.332063782938 0.043224174044 -0.330194595387 0.925753649798 0.074604187638
0.950175111000 0.925627224071 0.069518139871 0.039284919411 -0.331509515146 0.043031085390 -0.329908938434 0.926427560484 0.074027311281
0.951508222000 0.925442899981 0.069090171524 0.039402866299 -0.331237094658 0.042915578024 -0.329487737510 0.926271163187 0.073221516095
0.952841333000 0.925568170779 0.068333997255 0.039193977951 -0.330692210012 0.042755723770 -0.329264061003 0.926870554770 0.073365944045
0.954174444000 0.925944567566 0.067606162727 0.038748151542 -0.330239662032 0.042211627265 -0.328856535400 0.927076481095 0.072125611753
0.955507555000 0.926046645098 0.065960223733 0.038535452075 -0.329874457361 0.042029035162 -0.328660818809 0.928215712536 0.071752388299
0.956840666000 0.925891508094 0.065603892718 0.038177314565 -0.329527772533 0.041735123375 -0.328305981199 0.927803069698 0.069926527630
0.958173777000 0.926107896982 0.064690336865 0.038026249356 -0.329097855274 0.041411488114 -0.327625268163 0.927362502992 0.070358669156
0.959506888000 0.926467026681 0.064123577757 0.037775875477 -0.328754804339 0.041189600624 -0.327553708255 0.927762384118 0.069094155075
0.960840000000 0.926184273336 0.063352324321 0.037469584857 -0.328305635035 0.041047121794 -0.327373362779 0.929148160436 0.068589596107
0.962173111000 0.926550943408 0.062365611595 0.037339079538 -0.328212845724 0.040673279767 -0.326742872187 0.928811180762 0.067646400838
0.963506222000 0.926767671801 0.061389093784 0.036924078796 -0.327442377525 0.040315540065 -0.326471761434 0.928988141475 0.066425073062
0.964839333000 0.926790450482 0.060465342537 0.036530163081 -0.327210874511 0.039899062487 -0.325943904900 0.929112858885 0.065796653219
0.966172444000 0.926947803255 0.059756580430 0.036324626421 -0.326863547199 0.039752165712 -0.325593101714 0.929125358215 0.065143083759
0.967505555000 0.926908230761 0.059249982683 0.035973099185 -0.326378287546 0.039018450589 -0.325313798960 0.929493271271 0.064339224589
0.968838666000 0.927050427773 0.058586882586 0.035682951119 -0.326001008077 0.038870051577 -0.325194454032 0.929605455840 0.063963643757
0.970171777000 0.927570253852 0.057858315310 0.035401715134 -0.325652790238 0.038482446394 -0.324532466508 0.929605237570 0.062214505614
0.971504888000 0.927611678804 0.056807784159 0.035081015561 -0.325313572549 0.038202999017 -0.324362311282 0.930075019988 0.061940350410
0.972838000000 0.928093160833 0.057108569163 0.034939125507 -0.325034530485 0.037728106446 -0.323946004802 0.929850726384 0.060635218297
0.974171111000 0.928139692010 0.055732417083 0.034551558783 -0.324375316117 0.037563596774 -0.323612274224 0.930526472250 0.060803079717
0.975504222000 0.928378653505 0.055681868257 0.034594436332 -0.324207312863 0.037180066573 -0.323165008584 0.930485045090 0.059721891794
0.976837333000 0.928367455622 0.054695103437 0.034030383679 -0.323867017951 0.037266741814 -0.322686706305 0.930892225464 0.059393308637
0.978170444000 0.928100012423 0.054300797797 0.033761616215 -0.323564458756 0.036588790599 -0.322603346090 0.930966466367 0.057528424046
0.979503555000 0.928293920154 0.053817993397 0.033513759522 -0.323230436549 0.036073634048 -0.322261358771 0.931035412666 0.056880643115
0.980836666000 0.928449533858 0.052367353744 0.033195258571 -0.322561387936 0.035831049852 -0.321843881905 0.931421628412 0.056403012914
0.982169777000 0.929334221239 0.052201067495 0.033056890315 -0.322462763724 0.035807138241 -0.321368207636 0.931395094063 0.056461924767
0.983502888000 0.928762663265 0.051387604495 0.032614213663 -0.322157734829 0.035505024794 -0.321048424859 0.931567231302 0.055735389170
0.984836000000 0.928780075389 0.050553487557 0.032087806404 -0.321604976671 0.035134192848 -0.320727188964 0.932009564945 0.055011210738
0.986169111000 0.929437785118 0.050678189094 0.032216112685 -0.321211403580 0.034762436082 -0.320311214362 0.932030479187 0.054167939545
0.987502222000 0.929401961272 0.049288698499 0.031716082217 -0.321034986884 0.034412841009 -0.319933444475 0.931702004561 0.053579623837
0.988835333000 0.928863610833 0.048696882519 0.031453634532 -0.320172509308 0.033999674612 -0.319490261418 0.932137513817 0.052872869946
0.990168444000 0.929676272701 0.048078960349 0.030908491556 -0.320253822887 0.033681546052 -0.319357689517 0.932249297467 0.052747941205
0.991501555000 0.930048380250 0.047235835906 0.030704552378 -0.319802376056 0.033311398489 -0.318993944252 0.932971055535 0.051452959873
0.992834666000 0.929978860474 0.046695603875 0.030529634422 -0.319516582618 0.032890599784 -0.318640031155 0.932884246619 0.050932773481
0.994167777000 0.930073272427 0.045672237757 0.030007197567 -0.319065371063 0.032970658050 -0.318324982493 0.933276459205 0.050563123409
0.995500888000 0.930594609396 0.045906461964 0.029891319100 -0.318615253794 0.032574330805 -0.317935743393 0.933465639698 0.050194141481
0.996834000000 0.929856212958 0.044313067783 0.029388088539 -0.318061187765 0.032097960374 -0.317450867455 0.933372371232 0.049152015147
0.998167111000 0.930398002692 0.043641639339 0.029169732047 -0.317787152693 0.031706794639 -0.317110497053 0.933808708411 0.048198266792
0.999500222000 0.930995849381 0.042883954914 0.028669454447 -0.317625418404 0.031383284130 -0.316854749154 0.934048561263 0.048054482731
1.000833333000 0.930720070234 0.041460616909 0.028368078653 -0.317033528568 0.031015028246 -0.316705697645 0.933971761248 0.045948855672
1.002166444000 0.931168476528 0.041930293211 0.028245648768 -0.316995409812 0.031001416998 -0.316216070464 0.934503976355 0.046237541545
1.003499555000 0.931041144188 0.041471059773 0.027937995718 -0.316410152845 0.030265589669 -0.315848831431 0.934980011462 0.045279444286
1.004832666000 0.931959948970 0.041028762212 0.027680177294 -0.316170535411 0.030008997301 -0.315197066005 0.934779744103 0.044679728046
1.006165777000 0.931638537737 0.039655003159 0.027117764760 -0.315640104154 0.029729278334 -0.314845119712 0.935263350492 0.044151212716
1.007498888000 0.930950300254 0.038657479807 0.026684237853 -0.315286123687 0.029219859664 -0.314683758857 0.935214272496 0.043421914133
1.008832000000 0.931618958789 0.038631096252 0.026296510410 -0.315071059587 0.028805754785 -0.314218948178 0.935926066678 0.042588513139
1.010165111000 0.931338267706 0.037276637725 0.026038208534 -0.314592622834 0.028417469713 -0.313988614753 0.935971491554 0.041430705024
1.011498222000 0.931515733422 0.037061419216 0.025566867499 -0.314208499942 0.028133780232 -0.313558589386 0.936215700449 0.040801249397
1.012831333000 0.931493555881 0.036482864708 0.025241697404 -0.313819993904 0.027707529543 -0.313035655546 0.936273385356 0.040236124079
1.014164444000 0.932309497790 0.035145974664 0.024716734166 -0.313701373385 0.027373615753 -0.312731820844 0.936463845786 0.039196959319
1.015497555000 0.931656884968 0.035430704020 0.024415751520 -0.313032101987 0.026944181294 -0.312258081084 0.936240260348 0.038711152394
1.016830666000 0.931712917818 0.034446248357 0.024008210382 -0.312579222993 0.026529554513 -0.311897551870 0.936593338868 0.038483412503
1.018163777000 0.931686136841 0.034036162915 0.023840337555 -0.312042572845 0.026336353075 -0.311418580047 0.936881801041 0.037635622304
1.019496888000 0.931420754544 0.033750477892 0.023458739434 -0.311606825545 0.025955031485 -0.311108748157 0.936980355345 0.036716413576
1.020830000000 0.932038450500 0.032700819686 0.023119782602 -0.311385933835 0.025521159272 -0.310682401509 0.937035717592 0.036261260923
1.022163111000 0.931863202848 0.032700802774 0.022879684442 -0.310866744873 0.025206264911 -0.310329026451 0.937222301762 0.035392048784
1.023496222000 0.932560104760 0.031098537677 0.022347742721 -0.310722585033 0.024673936868 -0.309962984639 0.937290892672 0.034912235893
1.024829333000 0.932739212221 0.030107043540 0.021845590064 -0.310113503501 0.024604619577 -0.309378702388 0.937142789188 0.033711278604
1.026162444000 0.933228699309 0.029134546084 0.021341819705 -0.309920945520 0.024094195801 -0.309276571901 0.937538308760 0.033286678835
1.027495555000 0.933345349966 0.029041006789 0.021174440493 -0.309488833970 0.023760754974 -0.308895235649 0.938075746078 0.032055091553
1.028828666000 0.932186969154 0.029051062347 0.020735042622 -0.308590997533 0.023441371385 -0.308282956843 0.937766819295 0.032462818782
1.030161777000 0.932565851640 0.028626991254 0.020440656541 -0.308355196783 0.023034321911 -0.308062525058 0.938334716225 0.031479204549
1.031494888000 0.932359480324 0.027691358241 0.020097880461 -0.307829245693 0.022395405044 -0.307321760879 0.937168123149 0.030098210493
1.032828000000 0.933036034713 0.027648651252 0.019751403972 -0.307657863696 0.022245165527 -0.306847911769 0.937582331628 0.030040372117
1.034161111000 0.932756738827 0.026458574397 0.019523414748 -0.307038679456 0.022122047940 -0.306556237899 0.938161137381 0.029608400210
1.035494222000 0.933214656262 0.026115429063 0.019291343026 -0.306807414021 0.021606878942 -0.306082273277 0.938107599646 0.029269807531
1.036827333000 0.932620318308 0.025755446807 0.018862300126 -0.306108008147 0.021223120725 -0.305656687498 0.937706312392 0.029257902993
1.038160444000 0.933079546189 0.024261642361 0.018392196860 -0.306014799742 0.020840184570 -0.305301011260 0.938142420738 0.027438499669
1.039493555000 0.932994263720 0.023507445839 0.018207456314 -0.305382932588 0.020359369205 -0.304967579491 0.938853560725 0.026838875478
1.040826666000 0.933876345359 0.023804596417 0.018052128589 -0.304979130989 0.020194195512 -0.304360226120 0.938447223104 0.027250754171
1.042159777000 0.933953842058 0.022581348069 0.017716285302 -0.304803954468 0.019823348430 -0.303847375830 0.938566894412 0.025881322098
1.043492888000 0.934099477582 0.021652274919 0.017079816202 -0.304220683999 0.019700723945 -0.303405367423 0.937885324539 0.025729585577
1.044826000000 0.934123741385 0.021322263869 0.016943790199 -0.303870497656 0.019089530417 -0.303060120619 0.938112287587 0.024668107209
1.046159111000 0.934387259120 0.020190294747 0.016464095812 -0.303639132641 0.019082761568 -0.303050051157 0.940001002108 0.024617111980
1.047492222000 0.934003599918 0.020061672345 0.016179421814 -0.303089353217 0.018963848687 -0.302396956713 0.939316035047 0.023999813626
1.048825333000 0.933911544191 0.019486608705 0.016004175456 -0.302341642336 0.018516647043 -0.301314848407 0.938277272332 0.024109002515
1.050158444000 0.934137679499 0.018609182379 0.015686014647 -0.302418116061 0.018299683961 -0.301645489041 0.940286680069 0.022825256898
1.051491555000 0.934307901903 0.017772047229 0.015643026642 -0.301711590453 0.018103321881 -0.300775709744 0.938948825139 0.023854140075
1.052824666000 0.934903625001 0.017780192118 0.015114458743 -0.301197161157 0.017636973075 -0.300289450116 0.939382612092 0.022892754706
1.054157777000 0.934242425124 0.016509112287 0.014730588703 -0.300957752265 0.017000258376 -0.299920368165 0.940091248382 0.020585830595
1.055490888000 0.933646563687 0.016204717811 0.014192765610 -0.300195770951 0.016603925622 -0.299167844914 0.938856652881 0.019311894426
1.056824000000 0.934317466027 0.014891718365 0.013963704278 -0.300092707234 0.016031177862 -0.298991589295 0.939851618574 0.018469579840
1.058157111000 0.934831006861 0.014883066843 0.013803344160 -0.299605287315 0.016006408405 -0.298696332328 0.940963322071 0.019423806375
1.059490222000 0.934927918899 0.014294674009 0.013340762879 -0.299156993481 0.015510808528 -0.298209220536 0.940831178586 0.017268846667
1.060823333000 0.934872648364 0.014201556968 0.013293932069 -0.298547233118 0.015460389268 -0.297579726048 0.940749561306 0.016854307280
1.062156444000 0.934445261225 0.013279754192 0.012913877839 -0.297951506482 0.015344072320 -0.297112954206 0.940774922851 0.017442066182
1.063489555000 0.935237999472 0.012667673410 0.012231613114 -0.297534712061 0.014892627823 -0.296520811021 0.939912392576 0.015449961247
1.064822666000 0.935309891218 0.012634430720 0.012206954829 -0.296966977740 0.014052602312 -0.296426651289 0.940686177004 0.013406596758
1.066155777000 0.935826739796 0.012101353905 0.011932720405 -0.296848837908 0.014205830742 -0.295859827911 0.940654204669 0.014545552582
1.067488888000 0.935670414887 0.011408556052 0.011546292618 -0.296350212164 0.013926574177 -0.295350766947 0.940649981727 0.014368611386
1.068822000000 0.935536620454 0.010755364215 0.011462728130 -0.295639681629 0.013573772554 -0.294513890410 0.939704558244 0.012180232880
1.070155111000 0.935679602935 0.010715039127 0.011193208717 -0.295366192529 0.013581901599 -0.294416343822 0.941265765992 0.012672121632
1.071488222000 0.935884230855 0.009998819299 0.010792492593 -0.294689659421 0.013071711023 -0.293706880528 0.940137916538 0.012059297324
1.072821333000 0.936520109324 0.009154163185 0.010580927660 -0.294505025491 0.012893075536 -0.293500196068 0.941601892610 0.010897178646
1.074154444000 0.936970281285 0.008472192779 0.010161255674 -0.294238923890 0.012624492525 -0.292689877046 0.940525730508 0.009992026843
1.075487555000 0.936708463903 0.008554862790 0.009987256396 -0.293612609355 0.012129720781 -0.292521021555 0.941620923789 0.009461835058
1.076820666000 0.937171335015 0.007759250673 0.009510171310 -0.293218529144 0.011734878893 -0.291901621472 0.940427344883 0.008267725459
1.078153777000 0.937224444896 0.006634190073 0.009023448307 -0.292748221664 0.011655345410 -0.291492456293 0.940893494049 0.007727142897
1.079486888000 0.937407732398 0.006165814161 0.008911102430 -0.292366030976 0.011054153957 -0.291183657997 0.942278245198 0.006097534885
1.080820000000 0.937625379112 0.005669368722 0.008685404680 -0.291854425881 0.010938597934 -0.291105878077 0.943407078131 0.005896352303
1.082153111000 0.937836693340 0.004731973442 0.008502166323 -0.291521432425 0.010708981620 -0.290673568853 0.943365138437 0.005396058152
1.083486222000 0.937722481935 0.003934868799 0.007865822334 -0.290846831803 0.010386907604 -0.289995117976 0.942396796419 0.003976487519
1.084819333000 0.938275896608 0.003618715557 0.007976198516 -0.290567146235 0.010380393818 -0.289410991313 0.942463230886 0.004825400936
1.086152444000 0.938313453454 0.002470615874 0.007457442088 -0.290060585864 0.009863411583 -0.288760385558 0.942053671648 0.002831652804
1.087485555000 0.938587385483 0.001674709695 0.007111822227 -0.289552183319 0.009765634418 -0.288615800823 0.943199086960 0.003022534430
1.088818666000 0.938802068021 0.000807160220 0.006997588187 -0.289577226032 0.009471508186 -0.288602091719 0.944537422852 0.002222960645
1.090151777000 0.938379124308 0.000160148797 0.006592391944 -0.288726353611 0.008940748971 -0.287722250522 0.943294112353 0.000553764731
1.091484888000 0.939003474669 -0.000805541704 0.006390172150 -0.288427245739 0.008621616258 -0.287127327401 0.943047218525 0.000565460763
1.092818000000 0.939379890264 -0.000942471468 0.006043086126 -0.288008318707 0.008661320178 -0.286862503640 0.944490585715 -0.000349913551
1.094151111000 0.939478437061 -0.001767538041 0.005807029108 -0.287748339724 0.008458054679 -0.286222807299 0.943920339977 -0.000886428085
1.095484222000 0.938691572976 -0.001734564832 0.005903777845 -0.286852254432 0.008342598725 -0.286132131718 0.944620945027 -0.000356350226
1.096817333000 0.939245819770 -0.002779593583 0.005511395644 -0.286580381119 0.007980453647 -0.285528105863 0.944540219898 -0.001289822431
1.098150444000 0.939286085783 -0.002890625647 0.005060282142 -0.286156897114 0.007864866395 -0.285096420945 0.945182335007 -0.002233328559
1.099483555000 0.939302682304 -0.003711370117 0.004877053813 -0.285584270716 0.007288913770 -0.284254562370 0.944682295671 -0.004176372791
1.100816666000 0.939395512061 -0.003963502296 0.004704941902 -0.285115463579 0.007078466847 -0.283572401832 0.944354094149 -0.004507396074
1.102149777000 0.939430048635 -0.004965507444 0.004385914948 -0.284819067999 0.006969942862 -0.283644424044 0.946499769729 -0.005397789226
1.103482888000 0.938958159611 -0.005412432135 0.004273699683 -0.284065335679 0.007149210227 -0.283135963699 0.945957423477 -0.004450822829
1.104816000000 0.939747547111 -0.006348545748 0.003954375295 -0.283680680545 0.006438071120 -0.282389945672 0.945247976177 -0.006588298686
1.106149111000 0.939943098375 -0.006749858511 0.003590136210 -0.283264344460 0.006683687530 -0.281947539849 0.945004335414 -0.006690185512
1.107482222000 0.940308199234 -0.006905301447 0.003621373884 -0.282706950344 0.006149455274 -0.281622712143 0.946154746105 -0.008762505854
1.108815333000 0.939475405272 -0.008373311555 0.003195498052 -0.282333420094 0.005891198284 -0.281048862441 0.946410094676 -0.009527640097
1.110148444000 0.939769597695 -0.008474164913 0.003128380392 -0.281935623946 0.005723187005 -0.280349151396 0.945522468007 -0.009230896966
1.111481555000 0.939376043221 -0.009463501028 0.002820362776 -0.281160991590 0.005794755806 -0.280073419343 0.945773754956 -0.010282192263
1.112814666000 0.939086558724 -0.009883887421 0.002746606082 -0.280839989904 0.005553655882 -0.279605605607 0.946431570716 -0.010770318077
1.114147777000 0.939700146643 -0.009575233421 0.002657593843 -0.280362749708 0.005228226078 -0.279216942702 0.946202797987 -0.011940600450
1.115480888000 0.941146498102 -0.011014287141 0.002305872453 -0.280192448471 0.005096331447 -0.278587911854 0.946115556691 -0.011761071622
1.116814000000 0.940522911711 -0.010782168558 0.002541279234 -0.279808336025 0.005035159920 -0.278369802403 0.946559865026 -0.012859381936
1.118147111000 0.940621623570 -0.011793030414 0.001865560055 -0.279185139309 0.004978470444 -0.277634939965 0.946505946993 -0.013741801842
1.119480222000 0.941568929976 -0.013072272430 0.001521282105 -0.278993823193 0.004555290543 -0.277241387457 0.946629016050 -0.014546383539
1.120813333000 0.941569754426 -0.011339859911 0.002160614936 -0.278506938472 0.004826677768 -0.277011875176 0.947013711487 -0.015932054511
1.122146444000 0.940870427855 -0.013705240067 0.001663733945 -0.277843943398 0.004489597652 -0.276299924907 0.946439982537 -0.015997665823
1.123479555000 0.941159122779 -0.014953722566 0.001154335283 -0.277340747360 0.004210086635 -0.275961968333 0.946422672414 -0.016343101303
1.124812666000 0.940681838930 -0.014715811577 0.001024745810 -0.277004235602 0.004029928874 -0.275735806016 0.946845373615 -0.017332581498
1.126145777000 0.940360399537 -0.017255738265 0.000431371664 -0.276412247559 0.004042491414 -0.275090882577 0.946829800936 -0.018284201474
1.127478888000 0.941803419610 -0.016617416987 0.000553885086 -0.276468932524 0.003849413875 -0.274510855955 0.946437166218 -0.018650886415
1.128812000000 0.941781286192 -0.016916485843 0.000552056794 -0.275870071574 0.003811595575 -0.274068186181 0.946576456445 -0.019910069416
1.130145111000 0.941055504593 -0.017302598022 0.000433465295 -0.275302540559 0.003855524417 -0.273440073987 0.946640009632 -0.020343176052
1.131478222000 0.941988906691 -0.019005478843 0.000170775562 -0.274715985110 0.003328574433 -0.273041125621 0.947094088298 -0.020978793582
1.132811333000 0.942577395525 -0.019278194255 0.000180685993 -0.274593833660 0.003352916397 -0.272741745850 0.946813916127 -0.021315691558
1.134144444000 0.943461055419 -0.020690755127 -0.000100282829 -0.274094893897 0.003183098230 -0.272376869181 0.946842119119 -0.021695610679
1.135477555000 0.943544404301 -0.022285586183 -0.000297901802 -0.273659030133 0.002893249453 -0.271785312058 0.946847745419 -0.022588967997
1.136810666000 0.943312193357 -0.021147950466 -0.000238311713 -0.273262994317 0.002716902087 -0.271370826074 0.946784518648 -0.023567125270
1.138143777000 0.942484170881 -0.022472953421 -0.000647899731 -0.272791755901 0.002585978388 -0.270818950265 0.946844276560 -0.024790586566
1.139476888000 0.943382322668 -0.023772474188 -0.001115272662 -0.272704146686 0.002754788432 -0.270533429231 0.947382520778 -0.024695861577
1.140810000000 0.943632257711 -0.023995770812 -0.001108832119 -0.272223933190 0.002388739070 -0.270004332574 0.947218581902 -0.026092443380
1.142143111000 0.942474043149 -0.024457286521 -0.001237248924 -0.271571651510 0.002252090826 -0.269664753208 0.947241088681 -0.026862948048
1.143476222000 0.944231033620 -0.026094971314 -0.001326789536 -0.271523091897 0.002118441281 -0.269207900607 0.947384000160 -0.026995817594
1.144809333000 0.942208190993 -0.029095831634 -0.001716164042 -0.270185416637 0.001913069965 -0.268737590675 0.947292533119 -0.027611021888
1.146142444000 0.943965940481 -0.027375163952 -0.001529717237 -0.270393337256 0.002040976715 -0.268184639824 0.947338994629 -0.028175334121
1.147475555000 0.943413737794 -0.029921327501 -0.001591247730 -0.269974886114 0.002240718825 -0.267879504600 0.948087252439 -0.028063696144
1.148808666000 0.945598381235 -0.029063035058 -0.001678070736 -0.270008098673 0.001782434081 -0.267356214753 0.948188580021 -0.028916346924
1.150141777000 0.944459338053 -0.030414609271 -0.002530336249 -0.269474787477 0.001383062133 -0.267081549892 0.948480341977 -0.031342253735
1.151474888000 0.945313797535 -0.030608201885 -0.002642121185 -0.269207787206 0.001175832858 -0.266671689600 0.948207170997 -0.032680549081
1.152808000000 0.944618051225 -0.031196904768 -0.002666710539 -0.268382877519 0.001083241080 -0.266009995006 0.948325493494 -0.032644358123
1.154141111000 0.945130633086 -0.030295470575 -0.002293890580 -0.268145937837 0.001424595287 -0.265988327998 0.949929740454 -0.033153791568
1.155474222000 0.944937171328 -0.032319861145 -0.002282378698 -0.267883330311 0.001097875320 -0.265488784844 0.949657840045 -0.033430494747
1.156807333000 0.945046223675 -0.034423384903 -0.002872067616 -0.267179282203 0.000752572518 -0.264974348612 0.949318841170 -0.034315129870
1.158140444000 0.944270865837 -0.032838145416 -0.002579725420 -0.266603631360 0.000900571504 -0.264580432270 0.949632498152 -0.035443108765
1.159473555000 0.945217534058 -0.034131946727 -0.002985178042 -0.266317977767 0.000882919221 -0.264270061240 0.949758418042 -0.036097302702
1.160806666000 0.944605226593 -0.035167043617 -0.002778465614 -0.265848691865 0.000526610107 -0.263609540763 0.949531777983 -0.037246943980
1.162139777000 0.946351604419 -0.036783377675 -0.002963305175 -0.265496592710 0.000318683599 -0.263270867038 0.950001108936 -0.038347702848
1.163472888000 0.946502124913 -0.036162278494 -0.002933779149 -0.265273399895 0.000301658329 -0.262959912777 0.949003589202 -0.037897464786
1.164806000000 0.946606019859 -0.035799825941 -0.002693710082 -0.264681136823 0.000351214442 -0.262567121448 0.949503437503 -0.038818633781
1.166139111000 0.947767126066 -0.035279302858 -0.002838838074 -0.264750370582 0.000224827903 -0.262466968330 0.951380915441 -0.040416644749
1.167472222000 0.945545049213 -0.037752951698 -0.003245373613 -0.263895895086 0.000088991583 -0.261577571545 0.949581365710 -0.040734587509
1.168805333000 0.947128306363 -0.038647729737 -0.003380464940 -0.263892891188 -0.000114133795 -0.261311177588 0.949759412515 -0.041316715015
1.170138444000 0.947287614557 -0.037731977205 -0.002965884697 -0.263432974443 -0.000284033985 -0.261256062529 0.950920768152 -0.043010160466
1.171471555000 0.947457617229 -0.040535434671 -0.003761264577 -0.262973599990 -0.000320478165 -0.260740444554 0.950197735868 -0.042340400937
1.172804666000 0.947429649643 -0.039112732096 -0.003322930869 -0.262465804453 -0.000496778934 -0.260191418624 0.950447105389 -0.044852688955
1.174137777000 0.947618852122 -0.039525962553 -0.003223922098 -0.261939295477 -0.000421566437 -0.259806779046 0.949996605129 -0.044925118483
1.175470888000 0.947717477477 -0.041691606084 -0.004096456976 -0.261471663170 -0.000594834950 -0.259527909316 0.949636041275 -0.046156054994
1.176804000000 0.947556461928 -0.041932728801 -0.003860225676 -0.261262941268 -0.000438772647 -0.259211727674 0.950111803717 -0.045388242317
1.178137111000 0.948644488517 -0.041470144332 -0.003835573456 -0.260636900818 -0.000887497793 -0.258675931449 0.950447366002 -0.046108117821
1.179470222000 0.947533197495 -0.042177899684 -0.003985415340 -0.260320623387 -0.000820611225 -0.258438006994 0.950975848071 -0.047397483826
1.180803333000 0.947431682407 -0.044365304525 -0.004258147421 -0.260166804560 -0.000708158507 -0.257937086378 0.950597813949 -0.046307228544
1.182136444000 0.948039719114 -0.046233087421 -0.004743604771 -0.259643041967 -0.001120529178 -0.257659299351 0.951358213471 -0.048264800134
1.183469555000 0.947586008349 -0.046275359112 -0.004480074955 -0.259249408212 -0.001238894991 -0.256748043400 0.949812814766 -0.050293617300
1.184802666000 0.947807574637 -0.046206069827 -0.004560917063 -0.258915183857 -0.000999113491 -0.256827235453 0.951023478835 -0.049080905152
1.186135777000 0.947933746717 -0.047726095504 -0.004932372664 -0.258307138229 -0.001601885156 -0.256284416254 0.950714575934 -0.051868613121
1.187468888000 0.947583603400 -0.047616882303 -0.004846034158 -0.257911898207 -0.001479632675 -0.255822740162 0.950435736919 -0.051933314515
1.188802000000 0.948023439571 -0.048280771885 -0.004872506912 -0.257808811721 -0.001397478430 -0.255692269261 0.951672869136 -0.052339399159
1.190135111000 0.948394403655 -0.048933679057 -0.004987896801 -0.257192197964 -0.001547952284 -0.255131690012 0.950943725120 -0.052972906597
1.191468222000 0.949179170450 -0.049604272119 -0.005015664437 -0.256968363413 -0.001565657114 -0.255099535251 0.951990300770 -0.051512356605
1.192801333000 0.947666856146 -0.050780189081 -0.005096835072 -0.256562096946 -0.001709374436 -0.254787792409 0.952652528843 -0.052077029676
1.194134444000 0.948318224744 -0.050864198588 -0.005345209442 -0.256439087858 -0.001513673060 -0.254271127135 0.952090561785 -0.052934675638
1.195467555000 0.947759890021 -0.051283980899 -0.005281412203 -0.255874307341 -0.001574474172 -0.253575897901 0.950810416555 -0.055506276268
1.196800666000 0.948479777629 -0.051793400190 -0.005466663784 -0.255462631052 -0.001761860146 -0.253453984409 0.951527656631 -0.056082441668
1.198133777000 0.948143048341 -0.052911599358 -0.005444484271 -0.255104497521 -0.001829563841 -0.252948982658 0.951448165409 -0.056243217683
1.199466888000 0.948660202010 -0.052326065407 -0.005565581041 -0.254978829397 -0.001850824476 -0.252709429059 0.951659527214 -0.056943781860
1.200800000000 0.948026963121 -0.053575005354 -0.005876969417 -0.254427304195 -0.002137249009 -0.252232856858 0.951518002341 -0.058287004625
1.202133111000 0.948507380597 -0.053907376153 -0.005875788341 -0.254051672556 -0.002034609019 -0.251990450389 0.951302480832 -0.058980869466
1.203466222000 0.948693028438 -0.054928394505 -0.006034481708 -0.253707799172 -0.002382095017 -0.251238453521 0.951102738543 -0.060771445076
1.204799333000 0.948890520355 -0.055292070232 -0.005890439402 -0.253323249741 -0.001986165026 -0.250970730529 0.950877923896 -0.059897786033
1.206132444000 0.948979491617 -0.055541469938 -0.005956563021 -0.253138875487 -0.002032557978 -0.250832695756 0.950580903025 -0.060100657887
1.207465555000 0.948737493878 -0.057421640443 -0.006375738203 -0.252998349569 -0.002390322663 -0.250391948953 0.951055962320 -0.062027099271
1.208798666000 0.948926212401 -0.057656512114 -0.006396482974 -0.252792633264 -0.002721459723 -0.250413089036 0.952969377901 -0.063689493938
1.210131777000 0.949638461244 -0.058040450632 -0.006086135569 -0.252244444754 -0.002623029706 -0.249828867981 0.951802521598 -0.063657118911
1.211464888000 0.949472939516 -0.058851345080 -0.006130897594 -0.252099165280 -0.002661890059 -0.249690707326 0.952210589571 -0.064112786202
1.212798000000 0.949749840433 -0.059886262675 -0.006382610129 -0.251860850520 -0.002562259536 -0.249296707242 0.951869696137 -0.064593343269
1.214131111000 0.949618109538 -0.060166048326 -0.006227960858 -0.251643439931 -0.002723548700 -0.248849798505 0.951257738115 -0.065218760112
1.215464222000 0.949811571345 -0.060549403994 -0.006722223086 -0.251197671670 -0.002670877974 -0.248672222694 0.951344942460 -0.065909424207
1.216797333000 0.950227806089 -0.061624813235 -0.006630181779 -0.250902395831 -0.002864101604 -0.248263284789 0.951209107759 -0.066832221036
1.218130444000 0.950391180203 -0.062200438670 -0.006528322851 -0.250525262966 -0.002795639066 -0.247978501387 0.951054453584 -0.066682241519
1.219463555000 0.950262955253 -0.062620618653 -0.006793152275 -0.250460378453 -0.002774946602 -0.247735975182 0.951658357652 -0.067726188450
1.220796666000 0.950335691645 -0.063066796648 -0.006784935788 -0.250030095550 -0.003125523899 -0.247518453859 0.951419507609 -0.068319200161
1.222129777000 0.950697680776 -0.063731369480 -0.006702040365 -0.249906092732 -0.003293825573 -0.247105005830 0.951730711092 -0.069420686318
1.223462888000 0.950770298130 -0.064534338975 -0.006803843640 -0.249505171403 -0.003024770606 -0.246959416764 0.952152755337 -0.068738707447
1.224796000000 0.950585952680 -0.065446411174 -0.006790330019 -0.249412604336 -0.003433417702 -0.246797094182 0.953257894908 -0.070141890794
1.226129111000 0.951056332019 -0.065911016489 -0.006956149554 -0.248866758864 -0.003303356067 -0.246482054935 0.952036652296 -0.071067012656
1.227462222000 0.950831711662 -0.066117543955 -0.006796407984 -0.248515990341 -0.003507911557 -0.246137729549 0.952615185094 -0.072108854679
1.228795333000 0.951030880289 -0.066858455082 -0.006851632453 -0.248443534359 -0.003181820986 -0.245737799790 0.952057641998 -0.072023916116
1.230128444000 0.950683588883 -0.067272885356 -0.006846258331 -0.247973923812 -0.003585820035 -0.245347406290 0.951921883605 -0.073132950853
1.231461555000 0.951081733579 -0.067838254067 -0.007079858077 -0.247845677672 -0.003619284513 -0.245313672855 0.952668737127 -0.073165479778
1.232794666000 0.950869218833 -0.068342723767 -0.007159236154 -0.247519815188 -0.003688071253 -0.245151773044 0.952582368886 -0.074019493270
1.234127777000 0.951007592733 -0.068745502028 -0.006992189125 -0.247325111322 -0.003881278071 -0.244799561159 0.952501202728 -0.075030411277
1.235460888000 0.950661968338 -0.069206555615 -0.007038020464 -0.246787515373 -0.003656231726 -0.244269485322 0.952139482917 -0.075539006860
1.236794000000 0.950995947134 -0.069802293596 -0.007117285205 -0.246501709167 -0.003956444233 -0.244208380376 0.952711337420 -0.076057185206
1.238127111000 0.951318511103 -0.070308450685 -0.007206217965 -0.246335556116 -0.003997579499 -0.244024803899 0.952660165075 -0.075941718216
1.239460222000 0.950557573776 -0.071438717376 -0.007408802937 -0.246042130199 -0.004101920680 -0.243587294938 0.952991347246 -0.077443446788
1.240793333000 0.951206868902 -0.072612034200 -0.007442384151 -0.245859487016 -0.003971602318 -0.243534747194 0.952671062468 -0.078005878318
1.242126444000 0.951217683219 -0.072718003596 -0.007281333219 -0.245408565990 -0.004635004887 -0.243131408320 0.953089225830 -0.079052179777
1.243459555000 0.951476939050 -0.073020432716 -0.007436374929 -0.245105533718 -0.004390718568 -0.242917909586 0.953332263485 -0.079645413637
1.244792666000 0.950899142123 -0.073845015749 -0.007568998844 -0.244804066964 -0.004608222697 -0.242717470243 0.953024667573 -0.080057846924
1.246125777000 0.951121332369 -0.074476240906 -0.007655711332 -0.244579423745 -0.004705483134 -0.242575668963 0.953143388948 -0.080809086027
1.247458888000 0.951371678879 -0.075022814361 -0.007706857181 -0.244455192615 -0.004717339143 -0.242316740581 0.953176169305 -0.081210882227
1.248792000000 0.950899303229 -0.075005583597 -0.007899175368 -0.244128871514 -0.004682969438 -0.242100699829 0.953362722823 -0.081809709002
1.250125111000 0.951354345663 -0.076078743952 -0.008023288803 -0.243693888179 -0.004988296620 -0.241585933780 0.953480156977 -0.082823255563
1.251458222000 0.951242370108 -0.076682813749 -0.008115926987 -0.243477326975 -0.005015538085 -0.241440481280 0.953075306181 -0.083373957879
1.252791333000 0.951237680358 -0.077489068297 -0.008074014597 -0.243213509208 -0.005100877587 -0.241241054644 0.953678144399 -0.083904170281
1.254124444000 0.951609387900 -0.077570693243 -0.008121274979 -0.242895037895 -0.005144953293 -0.241122212001 0.953461320306 -0.084858727789
1.255457555000 0.951486067067 -0.077729060816 -0.008052263845 -0.242720436307 -0.005195638098 -0.240756348615 0.953138660453 -0.084944662725
1.256790666000 0.951380820023 -0.078832414612 -0.008438355660 -0.242365587291 -0.005513361033 -0.240531385729 0.953477208635 -0.085353145250
1.258123777000 0.951164693037 -0.078823314456 -0.008352446638 -0.242136916803 -0.005572787882 -0.240191846564 0.953732915823 -0.086394855123
1.259456888000 0.951290894792 -0.079580768586 -0.008407666847 -0.241833909827 -0.005784593082 -0.240021662352 0.953465104382 -0.087255089919
1.260790000000 0.952064898949 -0.079141915242 -0.008263652899 -0.241618584692 -0.005650347383 -0.239710948088 0.953933642962 -0.086742316496
1.262123111000 0.950466191438 -0.080577579531 -0.008939815773 -0.241200584519 -0.005841077835 -0.239330802839 0.953464947191 -0.088201771118
1.263456222000 0.950974525244 -0.080883463529 -0.008886797218 -0.240825821933 -0.006043566170 -0.239075832383 0.954269477998 -0.088831104727
1.264789333000 0.951078727976 -0.080953631665 -0.009081475560 -0.240719925377 -0.006279142559 -0.239002575723 0.953209827803 -0.089589249173
1.266122444000 0.950902203123 -0.082595974649 -0.009147723489 -0.240468287906 -0.006339624893 -0.238679658089 0.952691441241 -0.090178807861
1.267455555000 0.950777322281 -0.083357943304 -0.009252802884 -0.240190118393 -0.006549033299 -0.238485323805 0.953671762847 -0.091061681093
1.268788666000 0.950173197256 -0.083117237250 -0.009198469099 -0.239955983620 -0.006829160517 -0.238276064865 0.952962637791 -0.091316105114
1.270121777000 0.950656696379 -0.083688877737 -0.009500363668 -0.239553016900 -0.006664167702 -0.237875304863 0.952878732818 -0.092068655548
1.271454888000 0.951070748574 -0.084301257757 -0.009509923633 -0.239472935486 -0.007005055794 -0.237806933385 0.953266950946 -0.093056798826
1.272788000000 0.951139795451 -0.085273885478 -0.009750893740 -0.239204591748 -0.007094693492 -0.237594758663 0.953416422958 -0.092801686076
1.274121111000 0.950223416800 -0.086698032495 -0.009984709151 -0.239140208339 -0.007320252592 -0.237355925567 0.952602672288 -0.093898111457
1.275454222000 0.949962396359 -0.086940952527 -0.010008514605 -0.238634360383 -0.007368692328 -0.236961330072 0.952895486493 -0.094444545140
1.276787333000 0.951255152070 -0.086588522362 -0.009933551514 -0.238661261308 -0.007420007865 -0.236715754573 0.952384001150 -0.094297928104
1.278120444000 0.950928755368 -0.088232435627 -0.010282274240 -0.238448194851 -0.007735536703 -0.236489484910 0.952542729668 -0.095094509181
1.279453555000 0.950660963218 -0.087501963569 -0.010219382305 -0.238083606112 -0.007718198619 -0.236136008263 0.952385708829 -0.094210020113
1.280786666000 0.950190624770 -0.088112523083 -0.010409541993 -0.237842862948 -0.008181786061 -0.235902937090 0.953239906637 -0.095376109515
1.282119777000 0.949459993954 -0.089043249454 -0.010341714833 -0.237557100046 -0.008253021030 -0.235822044462 0.952530216394 -0.096324336250
1.283452888000 0.950961159945 -0.089812480796 -0.010707957106 -0.237604984124 -0.007373603038 -0.235053599596 0.953415912915 -0.096204687137
1.284786000000 0.949216781102 -0.090806211440 -0.010800199896 -0.237268752870 -0.007973366212 -0.234844285129 0.953663430220 -0.098615666612
1.286119111000 0.949955830960 -0.091627677737 -0.011038662319 -0.237088470944 -0.008722921407 -0.235056893672 0.952819214651 -0.097536533022
1.287452222000 0.951339322216 -0.091793164763 -0.010935088196 -0.237042755672 -0.009172831786 -0.234803775578 0.953023224518 -0.099188795392
1.288785333000 0.950136893736 -0.092061264325 -0.011388381266 -0.236538251643 -0.009486858764 -0.234387534869 0.952451887384 -0.099663029503
1.290118444000 0.949574844567 -0.094793827675 -0.011940919914 -0.236421017609 -0.009580508223 -0.233983485485 0.951978632100 -0.099321830303
1.291451555000 0.948784443666 -0.094057556530 -0.011773171604 -0.235972496827 -0.009646525825 -0.234065537384 0.954321328145 -0.100851486160
1.292784666000 0.950708847676 -0.092831106327 -0.011829265734 -0.235847051784 -0.009530311202 -0.233729271825 0.952024776072 -0.100760662988
1.294117777000 0.950325102960 -0.092643095079 -0.012086211340 -0.235733969608 -0.010144241887 -0.233949746213 0.954161828209 -0.100774020064
1.295450888000 0.950120480038 -0.095164397247 -0.012332833286 -0.235563034845 -0.009991852670 -0.233412374618 0.952026494627 -0.101024521440
1.296784000000 0.952202713320 -0.091717870431 -0.011968362079 -0.235494457530 -0.010744846145 -0.232995279487 0.951888276973 -0.104841602986
1.298117111000 0.950735815707 -0.095861306915 -0.012298514098 -0.234694211439 -0.010816405512 -0.232964400600 0.952551665581 -0.103690627925
1.299450222000 0.949402808404 -0.096117958277 -0.012709005108 -0.234713235646 -0.010963020426 -0.232768389695 0.953331706977 -0.104027991743
1.300783333000 0.949709075953 -0.096407888955 -0.012961067421 -0.234154163792 -0.011533706940 -0.232002989704 0.951168973485 -0.106564857437
1.302116444000 0.951653180055 -0.098183041383 -0.012888161687 -0.234184044962 -0.011436880943 -0.232013899943 0.950503550091 -0.105634466424
1.303449555000 0.950056579072 -0.096824323849 -0.013111554145 -0.233918837678 -0.011414330107 -0.231999609638 0.952995060242 -0.107398170004
1.304782666000 0.950959710283 -0.097689401047 -0.013305550647 -0.233555571289 -0.012140040593 -0.231627713742 0.952140118306 -0.108346602109
1.306115777000 0.950248831565 -0.098947164668 -0.013566388855 -0.233189428750 -0.012253520873 -0.231407353871 0.952474626294 -0.109451384972
1.307448888000 0.951782109933 -0.098564133946 -0.013252120646 -0.232732169990 -0.012270112942 -0.231083429408 0.951963133280 -0.107803788352
1.308782000000 0.952712602588 -0.099845309212 -0.013938699864 -0.232692358783 -0.012268566754 -0.230930916098 0.952763201159 -0.108356424423
1.310115111000 0.949775182156 -0.100776461468 -0.014114218322 -0.232201877806 -0.012610912826 -0.230813257114 0.951085632069 -0.109648806195
1.311448222000 0.952431396532 -0.098596110121 -0.014095263217 -0.232261486837 -0.012783802864 -0.230360384314 0.951942648006 -0.112007429575
1.312781333000 0.951182577539 -0.099588740627 -0.014221366273 -0.231654308815 -0.013237356699 -0.229914866354 0.950784851852 -0.112662142567
1.314114444000 0.952605777684 -0.101109635575 -0.014429379058 -0.231495417134 -0.013247479926 -0.229957049145 0.951595222198 -0.112957650084
1.315447555000 0.952094230782 -0.100632762656 -0.014756771838 -0.231349468596 -0.013515446528 -0.229713250148 0.951469386012 -0.112806561672
1.316780666000 0.952072535718 -0.101218463116 -0.014856022958 -0.230769144201 -0.013875016238 -0.229224900767 0.952740523612 -0.113683669981
1.318113777000 0.952150445963 -0.102417004743 -0.015480419482 -0.230433488409 -0.013684086997 -0.228877566844 0.949709577733 -0.113908416514
1.319446888000 0.952381344544 -0.102519377482 -0.015542580313 -0.230214698437 -0.014118431023 -0.228791028381 0.949922967575 -0.114722301176
1.320780000000 0.952497417479 -0.101880156919 -0.015428609434 -0.229879291559 -0.014482588915 -0.228571834959 0.951551429387 -0.115025746247
1.322113111000 0.952781909684 -0.102706805001 -0.015846549118 -0.229901473589 -0.014302766270 -0.228226882367 0.951596903358 -0.114392649381
1.323446222000 0.952820844083 -0.103220176160 -0.016003311245 -0.229576714256 -0.014526761984 -0.227956002275 0.952976593906 -0.115343717163
1.324779333000 0.951900055418 -0.104423838299 -0.016254550577 -0.229010292684 -0.014763441940 -0.227670970933 0.952203368894 -0.116382458184
1.326112444000 0.951870234745 -0.104548787375 -0.016246396404 -0.228579381352 -0.014910600285 -0.227628157578 0.951807210240 -0.116426487604
1.327445555000 0.952385995559 -0.103919550269 -0.016510874774 -0.228576523457 -0.014951586481 -0.227062415537 0.952019322536 -0.116955660917
1.328778666000 0.952043357012 -0.105258430905 -0.016617600952 -0.228111001982 -0.015021159641 -0.226843419736 0.952041442841 -0.117063584832
1.330111777000 0.951867126805 -0.106139735744 -0.017214600474 -0.227499349558 -0.015330529582 -0.226323510042 0.952157917959 -0.117972498584
1.331444888000 0.952316674973 -0.106243966346 -0.017312991689 -0.227544854361 -0.015635956645 -0.226204011760 0.951779847092 -0.118908584497
1.332778000000 0.951951998961 -0.107023679583 -0.017475718949 -0.226994437549 -0.015625845052 -0.226129592144 0.952893085701 -0.118498774844
1.334111111000 0.951438691447 -0.106451892620 -0.017376139320 -0.226718008546 -0.015794638950 -0.225568786968 0.952300148800 -0.119093681064
1.335444222000 0.951668993346 -0.107174481067 -0.017379443947 -0.226494541304 -0.015755734245 -0.225414054293 0.952702766397 -0.119180112691
1.336777333000 0.951213457714 -0.107725741137 -0.018117137650 -0.225913693399 -0.016255025377 -0.224948476779 0.952650566455 -0.120568859793
1.338110444000 0.951309926052 -0.107821551939 -0.018110476775 -0.225748954545 -0.016193487758 -0.224468770015 0.952242652422 -0.120578204027
1.339443555000 0.951315100076 -0.108194413755 -0.018303396867 -0.225257898694 -0.016404674046 -0.224181151717 0.951927786702 -0.121530032132
1.340776666000 0.950953570372 -0.108681418128 -0.018573337932 -0.225117944746 -0.016415620722 -0.223751093512 0.952354730107 -0.121822385701
1.342109777000 0.950891079820 -0.109283202482 -0.018854941590 -0.224753317744 -0.016758539874 -0.223318668470 0.952375793663 -0.122171065317
1.343442888000 0.950593991185 -0.109495077530 -0.018750286161 -0.224555445811 -0.016647840964 -0.223251463431 0.952613343160 -0.121998002260
1.344776000000 0.950850750711 -0.110118453386 -0.019037825427 -0.224224752941 -0.016755850202 -0.222583356323 0.952620435771 -0.123492028403
1.346109111000 0.950119952870 -0.110092159344 -0.019172458019 -0.223838032553 -0.017009361628 -0.222288894094 0.952710607144 -0.123599936103
1.347442222000 0.950207830902 -0.110798656169 -0.019402415837 -0.223478219031 -0.017151316618 -0.222006916027 0.952450874160 -0.124197786125
1.348775333000 0.950251644166 -0.111496160805 -0.019755547183 -0.223063581869 -0.017624838007 -0.221787079686 0.952668018904 -0.124538239341
1.350108444000 0.950329409402 -0.112131555074 -0.020202894550 -0.222734281916 -0.017441384923 -0.221414220671 0.952492773293 -0.124764255473
1.351441555000 0.949903092412 -0.112319609407 -0.020321579729 -0.222295406983 -0.017618821135 -0.220918871446 0.952510273265 -0.124763154651
1.352774666000 0.949473579077 -0.112506366346 -0.020570757638 -0.222056526889 -0.017972399767 -0.220517641094 0.952296524532 -0.125490322076
1.354107777000 0.949525310342 -0.112597495860 -0.020473971570 -0.221685840744 -0.018034599879 -0.220085323725 0.952541367991 -0.126295854530
1.355440888000 0.949059499236 -0.114246487388 -0.020790592738 -0.221515003158 -0.018166503708 -0.219730523706 0.952418156147 -0.126836608043
1.356774000000 0.949490635075 -0.114149538558 -0.020693906134 -0.221062004219 -0.018373253837 -0.219566334790 0.952531223110 -0.127943561906
1.358107111000 0.948898798158 -0.114407890151 -0.020944303880 -0.220630283145 -0.018521400793 -0.218990094311 0.952375878649 -0.128664197116
1.359440222000 0.948632089457 -0.115529296297 -0.021346592499 -0.220447603759 -0.018493651456 -0.218714056608 0.952619888407 -0.128451427349
1.360773333000 0.948948887939 -0.114707027423 -0.021236449234 -0.220136992757 -0.018691353166 -0.218418115087 0.952518727429 -0.128934386963
1.362106444000 0.948469222118 -0.115880877146 -0.021431344866 -0.219976753174 -0.018914002077 -0.218020284528 0.952564890082 -0.129667843751
1.363439555000 0.948104443421 -0.117325253713 -0.021713081410 -0.219610560854 -0.019067504128 -0.217620917661 0.952442561448 -0.130164522815
1.364772666000 0.947386481095 -0.116961732267 -0.021729544132 -0.218958972952 -0.019045678666 -0.217355260886 0.952041710335 -0.130161469507
1.366105777000 0.947917972012 -0.117317360458 -0.021865536737 -0.218776559338 -0.018988080098 -0.216869404944 0.952448677357 -0.130357471450
1.367438888000 0.947786202705 -0.118351688254 -0.022138038780 -0.218444004062 -0.019333632606 -0.216512808365 0.952195013542 -0.132236060855
1.368772000000 0.948055354657 -0.119363326589 -0.022449609570 -0.218215254934 -0.019378548191 -0.216134353012 0.951623265384 -0.132026873688
1.370105111000 0.947091178020 -0.120388756375 -0.022742075663 -0.217943337085 -0.019570252237 -0.215719824921 0.951726768813 -0.132714477808
1.371438222000 0.947482131226 -0.120285937429 -0.022578752349 -0.217385759904 -0.019902381204 -0.215243081466 0.952014846961 -0.133070150725
1.372771333000 0.947527857633 -0.120001268549 -0.022741513481 -0.217164479615 -0.019802608515 -0.214944955355 0.952019354637 -0.133429683788
1.374104444000 0.947875866973 -0.121291965668 -0.022876833365 -0.216793645634 -0.020045645901 -0.214534749328 0.952111984555 -0.134163159386
1.375437555000 0.946399279201 -0.122115181094 -0.023155596755 -0.216510853192 -0.020000923565 -0.214385244946 0.952054312243 -0.134880209868
1.376770666000 0.946226172022 -0.122940496440 -0.023140202956 -0.215881500924 -0.020356645452 -0.213879411870 0.952401826947 -0.136543026977
1.378103777000 0.947016624947 -0.123361964159 -0.023530390262 -0.215596301352 -0.020630002144 -0.213729938463 0.951591354250 -0.137241209083
1.379436888000 0.947055894101 -0.125125486675 -0.023639590107 -0.215603433744 -0.020625928362 -0.213294074157 0.952318038724 -0.137475974448
1.380770000000 0.945657803143 -0.125139018943 -0.023686515554 -0.214967506745 -0.020904975737 -0.212565492950 0.951764337790 -0.137249223722
1.382103111000 0.947294855576 -0.126451664811 -0.023730672039 -0.215038518068 -0.020961279133 -0.212620723180 0.952739613551 -0.137893997913
1.383436222000 0.945992549287 -0.125314206257 -0.023787938647 -0.214427084484 -0.020950296583 -0.212024645315 0.952066406956 -0.138794522628
1.384769333000 0.948747451670 -0.127981431807 -0.023931946451 -0.214383333335 -0.021246070434 -0.211841245992 0.952262058810 -0.139209251415
1.386102444000 0.946868116478 -0.128214710079 -0.024139677614 -0.213865683655 -0.021241055565 -0.211372501120 0.951797781566 -0.138337342068
1.387435555000 0.945844278548 -0.127583641647 -0.024062245421 -0.213267762806 -0.021442597908 -0.211110646713 0.952466555732 -0.141519355367
1.388768666000 0.947459837324 -0.129218900815 -0.024259282742 -0.213251499902 -0.021553080439 -0.210590020881 0.952463681032 -0.141807534634
1.390101777000 0.946418409966 -0.128799597481 -0.024467464329 -0.212690827196 -0.021564014061 -0.210015186996 0.951518715796 -0.141666843481
1.391434888000 0.946095058614 -0.129579150077 -0.024660568831 -0.212289825029 -0.021753097588 -0.209799534125 0.952153144504 -0.142842473758
1.392768000000 0.946054762536 -0.130561928096 -0.024768752357 -0.212244651681 -0.021527494095 -0.209526766122 0.952164323210 -0.143847050366
1.394101111000 0.946444521466 -0.130842756619 -0.024681074394 -0.211927616179 -0.021953503194 -0.209004224731 0.951493213069 -0.144641543260
1.395434222000 0.947674073112 -0.130662889448 -0.024912001281 -0.211728584235 -0.021946163103 -0.208960965940 0.952383508119 -0.145214941538
1.396767333000 0.947088640349 -0.132213324607 -0.025036881017 -0.211323587322 -0.022104325760 -0.208469855261 0.951842997632 -0.146126729922
1.398100444000 0.947165088180 -0.132359116501 -0.024991563368 -0.210390764493 -0.021792118249 -0.208404284589 0.952978659820 -0.146076034934
1.399433555000 0.948699708348 -0.134076394465 -0.025612921268 -0.210836667322 -0.022522825999 -0.207948332143 0.951034330122 -0.147657131099
1.400766666000 0.950221923805 -0.133244615986 -0.025524471137 -0.210553882267 -0.022619547897 -0.207527882995 0.952506113455 -0.148638691941
1.402099777000 0.948861266282 -0.135163699361 -0.025562706039 -0.210034302035 -0.022467271507 -0.207300505468 0.951292362427 -0.148892984977
1.403432888000 0.947578102925 -0.133138916230 -0.025368429683 -0.209586818893 -0.022441879986 -0.207008395307 0.952115747532 -0.149839119286
1.404766000000 0.948282026727 -0.134837694325 -0.025468080032 -0.209162018761 -0.022464892312 -0.206638207540 0.951224221020 -0.149297110539
1.406099111000 0.948237508680 -0.133804343542 -0.025593428506 -0.208948855274 -0.022501473871 -0.206103799633 0.950127858224 -0.149409100212
1.407432222000 0.948341471134 -0.135886845012 -0.025760994906 -0.208601315211 -0.022842907595 -0.206061887841 0.952077514860 -0.151078947415
1.408765333000 0.948224175776 -0.136554123295 -0.025899382438 -0.208396036516 -0.022917654812 -0.205589344398 0.951948836147 -0.151849479371
1.410098444000 0.948965442605 -0.135659861454 -0.025886693841 -0.208054134407 -0.023056759150 -0.205433703232 0.952900845405 -0.152716216717
1.411431555000 0.948847733078 -0.136977318952 -0.026034402050 -0.207924226746 -0.022869658975 -0.205269112964 0.952028109092 -0.153324536520
1.412764666000 0.948967053970 -0.137625496461 -0.026147089969 -0.207371090948 -0.022883765505 -0.204952830075 0.951767838942 -0.153185581388
1.414097777000 0.949587766524 -0.136545884073 -0.026129581450 -0.207443649598 -0.022675428885 -0.204818196234 0.952514610536 -0.152949231824
1.415430888000 0.948246084648 -0.137690811254 -0.026180624927 -0.206909680603 -0.022831424607 -0.204180595335 0.952448943312 -0.155369934845
1.416764000000 0.950756272230 -0.138134627213 -0.026254840057 -0.206608905929 -0.023557201995 -0.203973829003 0.952156481959 -0.157499601439
1.418097111000 0.949490141874 -0.137691942060 -0.025903370625 -0.206302551035 -0.022862866751 -0.203378320493 0.949416599706 -0.154582351791
1.419430222000 0.949341947408 -0.138467380617 -0.026037957929 -0.205992831201 -0.022935489494 -0.203423618029 0.952360849244 -0.155109644083
1.420763333000 0.948874780740 -0.140409989773 -0.026564375531 -0.205849894217 -0.022711501879 -0.202991919245 0.952098293052 -0.155783836190
1.422096444000 0.949726270095 -0.139338620617 -0.026115812909 -0.205613404544 -0.022548381476 -0.202531857184 0.950782621618 -0.156868554485
1.423429555000 0.950368219165 -0.139708631462 -0.025907246611 -0.205306636148 -0.022908628974 -0.202442899290 0.951377667463 -0.157159961356
1.424762666000 0.948142379253 -0.141904357995 -0.026197422912 -0.204686540525 -0.022723045642 -0.201926061615 0.950634871137 -0.157332335884
1.426095777000 0.948757202922 -0.140950435954 -0.025886105172 -0.204347520477 -0.022694688110 -0.201850021031 0.951170917493 -0.158089299574
1.427428888000 0.951190166536 -0.142897954103 -0.026385454224 -0.204253645974 -0.023051740660 -0.201181082695 0.949254566108 -0.158725263715
1.428762000000 0.945661414070 -0.142152430203 -0.026035958799 -0.203566544753 -0.022681923941 -0.200953368257 0.949834053988 -0.158539792216
1.430095111000 0.949526261186 -0.142374638693 -0.026041466630 -0.203527631502 -0.022490729881 -0.200888576561 0.951736569563 -0.159156214219
1.431428222000 0.948605530076 -0.144971868451 -0.026467888943 -0.203191770293 -0.022865419503 -0.200168441937 0.949571859940 -0.160869947148
1.432761333000 0.947525705294 -0.142509814671 -0.025620701689 -0.202822496234 -0.022909539074 -0.199598092847 0.948886593607 -0.161268299526
1.434094444000 0.950011362964 -0.144772322766 -0.026150149948 -0.202704063070 -0.022954411392 -0.199530376159 0.948025200479 -0.161778858746
1.435427555000 0.947590744345 -0.143990040605 -0.025758632386 -0.202196433221 -0.022685768709 -0.199482476650 0.949027761444 -0.160536812071
1.436760666000 0.948133212311 -0.143930118622 -0.025935737993 -0.201932275398 -0.022933335340 -0.198827471108 0.948970442238 -0.163120277343
1.438093777000 0.949795187245 -0.146276504841 -0.026218806250 -0.202076671204 -0.023235026514 -0.198773698251 0.949667761491 -0.163005027935
1.439426888000 0.948812487949 -0.147039826908 -0.026333384369 -0.201241111290 -0.023017575956 -0.198324349308 0.949104368454 -0.163900214575
1.440760000000 0.948398413023 -0.148211787154 -0.026066234725 -0.201019024323 -0.023002102639 -0.198036592998 0.950059224158 -0.164825171933
1.442093111000 0.948433405184 -0.148459955121 -0.026029406115 -0.200543247924 -0.022733544572 -0.197616366329 0.947332829327 -0.164804964258
1.443426222000 0.949297739314 -0.144267920875 -0.025907386954 -0.200429608668 -0.023474827376 -0.197041393285 0.947762459191 -0.168354762500
1.444759333000 0.948730248806 -0.150894300694 -0.026822553456 -0.200007833252 -0.022941873379 -0.197031847091 0.949262819142 -0.165388478717
1.446092444000 0.947583620887 -0.150377623204 -0.026451116823 -0.199651410965 -0.022654815531 -0.196495481473 0.949651365814 -0.165978035038
1.447425555000 0.945467195383 -0.149397684618 -0.026467631001 -0.199534949263 -0.023175372734 -0.196463110834 0.950695616135 -0.168650019415
1.448758666000 0.946698800391 -0.151533958602 -0.026014048584 -0.199124540177 -0.023104786642 -0.196269253339 0.949556047956 -0.167178012751
1.450091777000 0.948713314533 -0.150542658859 -0.026251590633 -0.199333657468 -0.022930710734 -0.195657341202 0.948402086927 -0.167466689320
1.451424888000 0.947141646670 -0.151603041927 -0.026096156592 -0.198703270499 -0.022787143861 -0.195575778156 0.949531005080 -0.167102112593
1.452758000000 0.949164844637 -0.150979654420 -0.026152902494 -0.198880502916 -0.022883510511 -0.195460892890 0.949631452233 -0.168600565422
1.454091111000 0.946157940415 -0.155680096326 -0.026539229047 -0.197706934437 -0.022989764373 -0.194797725304 0.948904687943 -0.170263016157
1.455424222000 0.948147579705 -0.153150685527 -0.026316504790 -0.197765585831 -0.023062202398 -0.194519197072 0.948508098239 -0.170751684962
1.456757333000 0.947599369075 -0.152982948941 -0.026160473902 -0.197619807912 -0.023035726266 -0.194529626284 0.949579147646 -0.171067160371
1.458090444000 0.948622931694 -0.153417932305 -0.026119980823 -0.197356074881 -0.022935394381 -0.193952871332 0.948076919266 -0.172509104417
1.459423555000 0.947399892275 -0.155265124681 -0.026339043207 -0.196820931287 -0.022556626636 -0.193519973682 0.947781934730 -0.171401575904
1.460756666000 0.949237655646 -0.155677825846 -0.026351165729 -0.196824900151 -0.023005836541 -0.193462505902 0.947938697836 -0.172132180918
1.462089777000 0.947747983120 -0.155047385973 -0.025769219310 -0.196110666966 -0.022789723567 -0.193026648451 0.948138925902 -0.173282038756
1.463422888000 0.947316744521 -0.156589492845 -0.026203974641 -0.195824958975 -0.022734857976 -0.193076392517 0.949154340664 -0.172839046973
1.464756000000 0.948200178835 -0.158165940247 -0.026377451796 -0.195319411706 -0.023091963181 -0.192632150543 0.949482133505 -0.173723793504
1.466089111000 0.947725852906 -0.156475714004 -0.025879643213 -0.195438099974 -0.022693817552 -0.192654258019 0.949095058957 -0.173217731153
1.467422222000 0.947176897082 -0.158208788751 -0.026083833016 -0.194815213407 -0.022648050796 -0.192307425335 0.948795838376 -0.174688599398
1.468755333000 0.948247313037 -0.159412214359 -0.025875939310 -0.194683380923 -0.022495740236 -0.191809717257 0.948340871971 -0.174798877706
1.470088444000 0.948598345802 -0.159348626729 -0.026337227989 -0.194626682440 -0.022631159107 -0.191877050374 0.949053115308 -0.175926898408
1.471421555000 0.949803633190 -0.158348063639 -0.026073668493 -0.194355251307 -0.022719034087 -0.191551941569 0.948810743107 -0.176633307437
1.472754666000 0.948617632091 -0.159239509795 -0.025893098205 -0.193971429260 -0.022873315510 -0.191026665216 0.949826315056 -0.177416316941
1.474087777000 0.948842984804 -0.161163147554 -0.026009247906 -0.193732574998 -0.022780520954 -0.190990562721 0.949334025412 -0.176865205730
1.475420888000 0.948861561809 -0.162235415843 -0.026276965559 -0.193543121171 -0.022890910378 -0.190913622749 0.949845058590 -0.178127756745
1.476754000000 0.948665532181 -0.161360414413 -0.026295084276 -0.193223088592 -0.022595221123 -0.190311567046 0.949755518740 -0.179170381090
1.478087111000 0.947701238016 -0.162576175424 -0.026127204580 -0.192948007845 -0.022612287594 -0.189977122236 0.949349235525 -0.179852069266
1.479420222000 0.948401050278 -0.162863065058 -0.026100656604 -0.192712426019 -0.022954439191 -0.189833755329 0.949831914433 -0.180071151987
1.480753333000 0.948550338718 -0.163338027657 -0.026105053985 -0.192717319405 -0.022796237978 -0.189356237375 0.950115900245 -0.181086393254
1.482086444000 0.947248311708 -0.163400764011 -0.025936073764 -0.192064022205 -0.022691958085 -0.189272572777 0.950225391700 -0.181641648762
1.483419555000 0.948888646467 -0.163691247852 -0.025891068311 -0.192073765355 -0.022814525079 -0.188818916473 0.950007355165 -0.181834981032
1.484752666000 0.948253279311 -0.164319094505 -0.025816074308 -0.191998483684 -0.022694312188 -0.188537176514 0.950560952557 -0.182857463979
1.486085777000 0.948927946455 -0.165138805204 -0.026422627486 -0.191705762055 -0.022889578071 -0.188340967814 0.950033909040 -0.183608465344
1.487418888000 0.949442558260 -0.165363618740 -0.026299444029 -0.191578236457 -0.022986909382 -0.188009975852 0.950324079062 -0.184487339174
1.488752000000 0.948671983163 -0.166106599851 -0.026020868900 -0.191345181924 -0.022915457969 -0.187615098293 0.950197151795 -0.185156202730
1.490085111000 0.948975358478 -0.166286458378 -0.026184086960 -0.191270756343 -0.022578807784 -0.187564835448 0.951429493299 -0.184776678167
1.491418222000 0.949385713479 -0.167528083584 -0.026305410682 -0.190839978313 -0.022711738047 -0.187114164126 0.951124769401 -0.185833354331
1.492751333000 0.949264315018 -0.167679622106 -0.026096074275 -0.190774836108 -0.022659994449 -0.186947513166 0.951224094018 -0.186393921551
1.494084444000 0.947901646179 -0.168206981687 -0.026113239256 -0.190506057898 -0.022470701247 -0.186393889097 0.950922466348 -0.185892788385
1.495417555000 0.948990177378 -0.168676750614 -0.025927155796 -0.190304988141 -0.022691027607 -0.186202731805 0.949893062158 -0.188196368496
1.496750666000 0.948626949919 -0.168371613199 -0.025801775261 -0.190385608579 -0.022582585662 -0.186068734984 0.951035011095 -0.187394220659
1.498083777000 0.948871812000 -0.169682756421 -0.025874411764 -0.189734581540 -0.022457197337 -0.185581047627 0.951162044063 -0.187923798666
1.499416888000 0.948805165751 -0.170175743379 -0.025752404847 -0.189763271538 -0.022611278110 -0.185585468170 0.952010850502 -0.188691702889
1.500750000000 0.949629154160 -0.171600101415 -0.026224140954 -0.190055794337 -0.022917068863 -0.185575301110 0.950695276101 -0.191268520742
1.502083111000 0.948926198856 -0.171057942456 -0.025838165116 -0.189308717601 -0.022309861232 -0.185041762290 0.951528103859 -0.189659098281
1.503416222000 0.949440507863 -0.171575965561 -0.025726139296 -0.189159152249 -0.022387585813 -0.184780878282 0.951771284112 -0.190545566837
1.504749333000 0.949414206625 -0.172020384235 -0.025683888205 -0.188888652870 -0.022403392384 -0.184560494787 0.952054093211 -0.191419198943
1.506082444000 0.949233254375 -0.172711437201 -0.025646648902 -0.188621740468 -0.022355572793 -0.184175429284 0.950705534641 -0.191963205978
1.507415555000 0.949288750763 -0.174052894327 -0.025601795990 -0.188620672628 -0.022324732842 -0.184033008519 0.950879951929 -0.191311985762
1.508748666000 0.949392118391 -0.173708106327 -0.025274239282 -0.188293640746 -0.022335187070 -0.183810915051 0.950577900633 -0.191808249570
1.510081777000 0.949404775547 -0.175344650318 -0.025435865488 -0.187950094205 -0.022554589589 -0.183608350315 0.951699886987 -0.193360089200
1.511414888000 0.948721198750 -0.175826857984 -0.025712792063 -0.187677351793 -0.022307317615 -0.183430009033 0.949587006483 -0.193880881290
1.512748000000 0.948969724877 -0.176017517949 -0.025520854974 -0.187567446282 -0.022649719413 -0.183089031912 0.950892215890 -0.194777487102
1.514081111000 0.949320113954 -0.176466142997 -0.025653320267 -0.187186838788 -0.022460000854 -0.182727974638 0.950148513944 -0.195721204073
1.515414222000 0.948927043286 -0.177944230301 -0.025556199365 -0.187176701891 -0.022100011588 -0.182566049028 0.950498532493 -0.194392571907
1.516747333000 0.949692855511 -0.178648265646 -0.025388194576 -0.186875065714 -0.022405409620 -0.182195606632 0.948710150818 -0.195936153711
1.518080444000 0.949982273638 -0.178769306356 -0.025290013936 -0.186733885035 -0.022241004164 -0.182192442179 0.949594056058 -0.195599141328
1.519413555000 0.950297771655 -0.178619606768 -0.025228464538 -0.186554413597 -0.022163704307 -0.181951750003 0.948771735417 -0.196028714283
1.520746666000 0.950162089394 -0.179621698391 -0.025198624844 -0.186465687814 -0.022241881978 -0.182260280349 0.950539160357 -0.197061873748
1.522079777000 0.949828139598 -0.180432678908 -0.025089443081 -0.186047111427 -0.022353304481 -0.181581926785 0.948944656884 -0.197662782740
1.523412888000 0.949817574664 -0.181052287234 -0.025230692626 -0.185890002358 -0.022394912708 -0.181596272004 0.950119585795 -0.200454488417
1.524746000000 0.950267189559 -0.181343126225 -0.025168619413 -0.185806609208 -0.022222689720 -0.181429438737 0.948859941101 -0.198532352154
1.526079111000 0.950151092436 -0.182328673633 -0.025194840866 -0.185579087574 -0.022292322059 -0.180886239167 0.948800386331 -0.199787998521
1.527412222000 0.950919229378 -0.182562626287 -0.025141881406 -0.185460590352 -0.022425196382 -0.181098589130 0.948936530317 -0.200155279005
1.528745333000 0.950536630055 -0.183472839850 -0.025103756305 -0.185072490723 -0.022293103754 -0.180710981311 0.946463633323 -0.201623574613
1.530078444000 0.951384588414 -0.183947516440 -0.025040374258 -0.185019962668 -0.022422856732 -0.180809719290 0.948111912612 -0.201201544572
1.531411555000 0.950885662835 -0.184843366978 -0.025058185065 -0.184871546632 -0.022213447184 -0.180636080320 0.948544916644 -0.200804799979
1.532744666000 0.951091803910 -0.185323854340 -0.025161612041 -0.184364634048 -0.022164548994 -0.180755789411 0.948618793361 -0.201279107139
1.534077777000 0.951469535942 -0.186875663166 -0.025133431823 -0.184157258235 -0.022322628376 -0.180027152973 0.945427976869 -0.203692283218
1.535410888000 0.951669996620 -0.186656530918 -0.025190459377 -0.184127726859 -0.022139551699 -0.180108297881 0.948311152906 -0.203845857307
1.536744000000 0.950935451040 -0.186062570513 -0.024823682358 -0.183975505415 -0.022101690116 -0.179978596679 0.947232224079 -0.204228086602
1.538077111000 0.951790979513 -0.187392133202 -0.025046976065 -0.183837018305 -0.022164038481 -0.179958805678 0.947751626839 -0.204314419333
1.539410222000 0.951267812865 -0.187405862638 -0.024842460713 -0.183519152371 -0.022240028228 -0.179764017810 0.946897767358 -0.205642545217
1.540743333000 0.951387397649 -0.187893406276 -0.024952357560 -0.183467803243 -0.022364360381 -0.179635367163 0.947497773910 -0.205711220546
1.542076444000 0.952329594811 -0.187619165869 -0.025077455586 -0.183315211149 -0.022277277781 -0.179545029595 0.947181085955 -0.206570537392
1.543409555000 0.951439776298 -0.188650438041 -0.024812851396 -0.183082285881 -0.022139681829 -0.179442272086 0.946749336200 -0.207026699244
1.544742666000 0.952073520257 -0.188324484842 -0.024829305593 -0.183032335044 -0.022334437043 -0.179342310863 0.947940453929 -0.207004045827
1.546075777000 0.952220385459 -0.189225291146 -0.024892392183 -0.182833006523 -0.022220830009 -0.179470985237 0.948024209551 -0.206174470784
1.547408888000 0.952378941639 -0.190364934502 -0.024895837137 -0.182504948464 -0.022220846318 -0.179324062070 0.947006083298 -0.208157798312
1.548742000000 0.952584851154 -0.191853697126 -0.025020166860 -0.182437941469 -0.022010890877 -0.179236524146 0.946040005457 -0.208779106832
1.550075111000 0.951755699203 -0.190218525567 -0.024728018947 -0.182246819440 -0.021960993849 -0.178946242008 0.945651483217 -0.208481930216
1.551408222000 0.951166893279 -0.190790571875 -0.024664588234 -0.181853379662 -0.022181933577 -0.178927176050 0.947685645746 -0.209392494363
1.552741333000 0.952170402310 -0.191641051862 -0.025033125246 -0.181789969610 -0.022393739656 -0.178800792506 0.945593203924 -0.211596790171
1.554074444000 0.951880510099 -0.190398675196 -0.024695148969 -0.181894410361 -0.022266831298 -0.178461653694 0.946483067256 -0.210692830114
1.555407555000 0.952115801849 -0.192007230909 -0.024723681909 -0.181617181142 -0.022428644450 -0.178453166854 0.945739214512 -0.211535164054
1.556740666000 0.951666769051 -0.192431792688 -0.024977869670 -0.181329476965 -0.022297490099 -0.178468457923 0.946106717951 -0.211711951348
1.558073777000 0.952932180995 -0.192802081083 -0.025153169331 -0.181313844391 -0.022290728025 -0.178507779006 0.947030783569 -0.213331207053
1.559406888000 0.952145339259 -0.193034894825 -0.024963627942 -0.181199621820 -0.022337235359 -0.178251835416 0.946226210971 -0.211782732766
1.560740000000 0.951131146310 -0.194661221065 -0.025052731935 -0.180749416203 -0.022368985848 -0.178135024494 0.947249239877 -0.212610272161
1.562073111000 0.950407347985 -0.191683273824 -0.024656623100 -0.180573883914 -0.022162111597 -0.177984162186 0.945000020452 -0.214379770288
1.563406222000 0.950954386941 -0.193773912596 -0.024906746291 -0.180331978079 -0.022350800077 -0.177984805119 0.945758669768 -0.213715383320
1.564739333000 0.950410571079 -0.193168347440 -0.024808415441 -0.180338547083 -0.022194349586 -0.177773160435 0.946332714334 -0.214488929439
1.566072444000 0.950887047515 -0.194021430711 -0.025005977643 -0.180128899128 -0.022416356515 -0.177802629880 0.945113475139 -0.215161795632
1.567405555000 0.949687651807 -0.195388197684 -0.025213222726 -0.179780439735 -0.022517268880 -0.177678375967 0.946400499810 -0.215662664882
1.568738666000 0.950205135700 -0.194567522414 -0.025195267579 -0.179731761254 -0.022666939987 -0.177478040447 0.945707293233 -0.216522704662
1.570071777000 0.950294773259 -0.194916561830 -0.025148735116 -0.179708683708 -0.022650388446 -0.177361666865 0.945660317917 -0.216540904932
1.571404888000 0.948990792904 -0.195275903301 -0.025156982100 -0.179438667477 -0.022873663624 -0.177161618318 0.945307320410 -0.216162385317
1.572738000000 0.949134510171 -0.196132511368 -0.025324879346 -0.179182601123 -0.022947731041 -0.177112872783 0.945354586795 -0.217727487264
1.574071111000 0.949328377093 -0.195537535826 -0.025342781141 -0.179162967568 -0.022903102963 -0.176888687480 0.945177798127 -0.218675138859
1.575404222000 0.949262167398 -0.196106176745 -0.025369533476 -0.179066037755 -0.023052192156 -0.176870423278 0.945684713975 -0.219038253986
1.576737333000 0.948072400391 -0.197774044626 -0.025681873539 -0.178799469830 -0.023110742218 -0.176844759579 0.945937529649 -0.218947831534
1.578070444000 0.948255848992 -0.197632167700 -0.025650646232 -0.178609180508 -0.023276551762 -0.176651660778 0.946016454335 -0.219128017294
1.579403555000 0.947743092343 -0.197291457339 -0.025665683105 -0.178458722423 -0.023156130369 -0.176564794721 0.945786220038 -0.220604126283
1.580736666000 0.947950343131 -0.198123207322 -0.025798745637 -0.178308012350 -0.023327415373 -0.176628082576 0.945696841949 -0.220877195551
1.582069777000 0.947408565872 -0.198634274973 -0.025914108945 -0.178213195865 -0.023562441814 -0.176379429892 0.946077587474 -0.221275647093
1.583402888000 0.947529807025 -0.197936385241 -0.025877647098 -0.178095409495 -0.023583022720 -0.176259385986 0.945353755570 -0.222140008774
1.584736000000 0.946745360379 -0.199080882464 -0.026258852494 -0.177717725918 -0.023830254797 -0.176088566286 0.945760987076 -0.222591196311
1.586069111000 0.946704322096 -0.199567204600 -0.026156640832 -0.177586603206 -0.023937068084 -0.175769731749 0.945744574786 -0.222780193742
1.587402222000 0.947514380606 -0.200330198679 -0.026549567039 -0.177513763500 -0.024217425010 -0.175675951544 0.945678205431 -0.223954381280
1.588735333000 0.947185316523 -0.200324559252 -0.026436523809 -0.177455659603 -0.024079411339 -0.175543198767 0.945773770172 -0.224048017604
1.590068444000 0.945580964782 -0.201367173292 -0.026639003665 -0.176811908726 -0.024403727864 -0.175392404754 0.945520996579 -0.224159222864
1.591401555000 0.946959133734 -0.201653320029 -0.026875207411 -0.177007538374 -0.024516910683 -0.175359482614 0.945784455559 -0.225507715377
1.592734666000 0.945762990901 -0.201382321288 -0.026846098392 -0.176557663270 -0.024676008212 -0.175107247923 0.945340617257 -0.225739360229
1.594067777000 0.945391361422 -0.201962395470 -0.027090853811 -0.176535045250 -0.024696483506 -0.174864722506 0.945755316565 -0.226405325529
1.595400888000 0.945904156137 -0.201935696816 -0.027194792927 -0.176443008698 -0.024882601098 -0.174778143295 0.945645230624 -0.226935923948
1.596734000000 0.945352994758 -0.202872985731 -0.027410900741 -0.176311791573 -0.024845352315 -0.174521310683 0.945823979247 -0.227748707943
1.598067111000 0.945194549776 -0.202993091284 -0.027515574521 -0.176122553477 -0.025099419635 -0.174536686919 0.945793187831 -0.228304335785
1.599400222000 0.945171128209 -0.204078471979 -0.027491359698 -0.175717879376 -0.025019082341 -0.174168947653 0.945886264174 -0.227913270594
1.600733333000 0.945127497832 -0.204330884872 -0.027637702628 -0.175726193883 -0.025349267393 -0.174077739354 0.946006505857 -0.228733288530
1.602066444000 0.944225319771 -0.204849762674 -0.028065574668 -0.175318438047 -0.025274351110 -0.173735426080 0.945551954049 -0.229075412193
1.603399555000 0.944299048729 -0.204619616052 -0.028125157637 -0.175270452056 -0.025533721386 -0.173522480515 0.945239202249 -0.230153208559
1.604732666000 0.944216504612 -0.205656257261 -0.028302925484 -0.175068147590 -0.025587428536 -0.173510146741 0.946123677466 -0.230387475677
1.606065777000 0.944824939123 -0.205642257490 -0.028542834227 -0.174875141185 -0.025760115292 -0.173337795860 0.945942586823 -0.230211990168
1.607398888000 0.944742164648 -0.206443166534 -0.028745287155 -0.174867018091 -0.025937292321 -0.173029467677 0.945610576426 -0.231637981660
1.608732000000 0.944266254220 -0.206714570477 -0.028806723077 -0.174509405946 -0.026009735865 -0.173009274084 0.945683224928 -0.231519635390
1.610065111000 0.944292359890 -0.207748806320 -0.029141210175 -0.174398894943 -0.026262773401 -0.172745705735 0.945722746737 -0.232587074545
1.611398222000 0.944116885248 -0.208799114926 -0.029342233708 -0.174177298934 -0.026314060266 -0.172257364083 0.945119350472 -0.232726798533
1.612731333000 0.943729453935 -0.208030814102 -0.029267737264 -0.173910718619 -0.026602757402 -0.172165968695 0.944950184554 -0.233553635056
1.614064444000 0.944074817657 -0.208241271594 -0.029322588758 -0.173864517841 -0.026466829115 -0.171892766842 0.944884524024 -0.233442547679
1.615397555000 0.944103719526 -0.209160239549 -0.029617393537 -0.173621098473 -0.026668798739 -0.171728264526 0.944829949639 -0.234636369606
1.616730666000 0.943408955119 -0.210027590144 -0.029965994988 -0.173154161459 -0.026894460500 -0.171548544313 0.945084668369 -0.235283051788
1.618063777000 0.943787937204 -0.210138898036 -0.030029837275 -0.173148160830 -0.027002007162 -0.171346557723 0.945042554447 -0.235175182766
1.619396888000 0.943717581618 -0.210721670567 -0.030166261170 -0.172831063088 -0.027091343030 -0.170955296396 0.943811939190 -0.235223210247
1.620730000000 0.943417151383 -0.210965457900 -0.030285056607 -0.172709189311 -0.027215390142 -0.170845384801 0.944920537979 -0.235969625204
1.622063111000 0.943417486212 -0.211026516219 -0.030436862945 -0.172674529926 -0.027495382647 -0.170698143789 0.945750422424 -0.237528164393
1.623396222000 0.943088666573 -0.211828915845 -0.030556232682 -0.172207381369 -0.027780246155 -0.170215849047 0.943989540954 -0.237254865503
1.624729333000 0.942949323324 -0.212535879524 -0.030650865998 -0.171985593946 -0.027683596041 -0.170075589544 0.944732728301 -0.238389329668
1.626062444000 0.943219606306 -0.212660939478 -0.030858053376 -0.171980316602 -0.027876326673 -0.169869670379 0.944925945042 -0.238444516540
1.627395555000 0.943459399921 -0.213387932892 -0.031083098637 -0.171858789115 -0.027860958599 -0.169430286096 0.942732263337 -0.238461064190
1.628728666000 0.943333225468 -0.213814981157 -0.031271271469 -0.171461632897 -0.028132058007 -0.169016909324 0.942246488893 -0.240317675428
1.630061777000 0.943503034329 -0.213491695566 -0.031372994027 -0.171154116546 -0.027940605885 -0.169044448851 0.943073787916 -0.238922170486
1.631394888000 0.943234111802 -0.214200929161 -0.031584829230 -0.171051812799 -0.028292352186 -0.169060375520 0.946119768447 -0.241429507261
1.632728000000 0.943004100580 -0.214923924127 -0.031734269199 -0.170933595310 -0.028271211040 -0.168359719996 0.942821656705 -0.240383646512
1.634061111000 0.943670095233 -0.214546012923 -0.031840712466 -0.170800920833 -0.028541193594 -0.168271854505 0.942844065732 -0.240603770623
1.635394222000 0.942427541871 -0.214971922925 -0.031800361071 -0.170184907958 -0.028382710809 -0.167834745423 0.940298086287 -0.240350453221
1.636727333000 0.943618638417 -0.215404840623 -0.032278065605 -0.170193030372 -0.028934870169 -0.167981984834 0.944233178003 -0.243356406701
1.638060444000 0.942774159039 -0.215405996375 -0.032101256839 -0.169612951571 -0.028957013731 -0.167686813960 0.943240681140 -0.244671258121
1.639393555000 0.942244593840 -0.217026335458 -0.032416130110 -0.169505494750 -0.029081601303 -0.167004852716 0.942318892896 -0.243698767992
1.640726666000 0.942831050542 -0.216625651776 -0.032350613579 -0.169538401021 -0.028956012495 -0.166881148168 0.941686956901 -0.243407800695
1.642059777000 0.943148072115 -0.217488975866 -0.032562127136 -0.169167391665 -0.029180195422 -0.166816735766 0.943122441064 -0.244886196646
1.643392888000 0.942980411478 -0.217313103214 -0.032746002511 -0.168973531072 -0.029247517636 -0.166530149078 0.942689562242 -0.245251582432
1.644726000000 0.943507105374 -0.217666559823 -0.032815405711 -0.168756593083 -0.029158045427 -0.166318675233 0.943548403739 -0.244455968385
1.646059111000 0.942646191091 -0.217924049453 -0.032835971901 -0.168358236708 -0.029247310651 -0.165824054486 0.942548481755 -0.245699915882
1.647392222000 0.943277168967 -0.218100407749 -0.033147891669 -0.168080766767 -0.029489494346 -0.165691924491 0.941542684737 -0.247292638947
1.648725333000 0.941554314913 -0.217769577702 -0.032940692325 -0.168033914595 -0.029179777837 -0.165163029879 0.941155700973 -0.245578935000
1.650058444000 0.942810475182 -0.219469579028 -0.033123524378 -0.167723666195 -0.029584551014 -0.165034998336 0.942381202770 -0.247018951705
1.651391555000 0.942028573450 -0.218414949714 -0.033049920782 -0.167439713708 -0.029466122917 -0.164699790208 0.941199368455 -0.246379400232
1.652724666000 0.942568689883 -0.218187143722 -0.033345225590 -0.167150543420 -0.029623241932 -0.164578265914 0.941794601695 -0.247487814266
1.654057777000 0.942674356952 -0.219335727741 -0.033158995628 -0.166893357926 -0.029632032743 -0.163977054662 0.940414106256 -0.246854411531
1.655390888000 0.942455053660 -0.219200704902 -0.033261380413 -0.166516516575 -0.029764731303 -0.163942364159 0.940655876129 -0.247766335479
1.656724000000 0.942713817290 -0.218676708316 -0.033348844957 -0.166406517515 -0.029503582520 -0.163769394689 0.940778346736 -0.247130865022
1.658057111000 0.942408651726 -0.220074771231 -0.033478562143 -0.165909408481 -0.030098260358 -0.163542048481 0.941078216476 -0.249638096197
1.659390222000 0.942264940224 -0.220889809317 -0.033652126480 -0.165585147458 -0.030070005262 -0.163169937335 0.940912304452 -0.248365729860
1.660723333000 0.943311049980 -0.220580860916 -0.033691130396 -0.165426211979 -0.030142587478 -0.163036996625 0.940358987870 -0.250529456339
1.662056444000 0.940810246887 -0.220799210225 -0.033517506528 -0.164797592087 -0.029980761913 -0.162535701423 0.939425366032 -0.249815647761
1.663389555000 0.940041094838 -0.221564509134 -0.033757934078 -0.164563461340 -0.030097429262 -0.162087480649 0.939064754892 -0.250489164502
1.664722666000 0.941586096585 -0.221141661673 -0.033643641551 -0.164543137513 -0.030260879392 -0.161960899247 0.938517796178 -0.251254469256
1.666055777000 0.942596478145 -0.220692322536 -0.033808001822 -0.164399053118 -0.030231419266 -0.161624525619 0.938865745737 -0.251664187853
1.667388888000 0.941228312778 -0.224247519662 -0.034001427599 -0.163912566920 -0.030762340788 -0.161589183040 0.939285522910 -0.252759427462
1.668722000000 0.941144769371 -0.224181482029 -0.034000013289 -0.163736942160 -0.030466016895 -0.160985030444 0.937813471202 -0.252531482051
1.670055111000 0.941668351123 -0.224165272411 -0.033847440557 -0.163424677301 -0.030383553899 -0.160922367342 0.939978569696 -0.253574646640
1.671388222000 0.941594075766 -0.223566614484 -0.034052314699 -0.163409939648 -0.030465526704 -0.160974073612 0.940596444986 -0.254560355521
1.672721333000 0.939759908610 -0.223095552147 -0.033817359189 -0.162668553928 -0.030311508748 -0.160135036968 0.937572687618 -0.252675939126
1.674054444000 0.940136205806 -0.225099742011 -0.034385150423 -0.162496796058 -0.030576169352 -0.160085171287 0.938446117556 -0.253388263532
1.675387555000 0.940142562265 -0.224942804682 -0.034113384718 -0.162194814405 -0.030479485905 -0.159771388182 0.939145475787 -0.255143934244
1.676720666000 0.939132769469 -0.226595474677 -0.034405009725 -0.161923130859 -0.030671661225 -0.159418307125 0.938315451454 -0.254818314993
1.678053777000 0.941082530263 -0.226513348443 -0.034294998374 -0.161969623916 -0.030627474594 -0.159384173896 0.939583172330 -0.254657430562
1.679386888000 0.939795256892 -0.226233219854 -0.034122684503 -0.161485743320 -0.030545815106 -0.158982327604 0.938324998835 -0.254832764755
1.680720000000 0.939592729057 -0.228607499746 -0.034616343259 -0.161170597867 -0.030680231317 -0.158662165594 0.938866320774 -0.256572533218
1.682053111000 0.937472562791 -0.225863686099 -0.034110123601 -0.160971823975 -0.030545202728 -0.158551322240 0.938364643083 -0.256819781870
1.683386222000 0.937661119398 -0.229981726306 -0.034458182566 -0.160394757474 -0.030729986311 -0.158135438262 0.938147277169 -0.257581806097
1.684719333000 0.938364224526 -0.228874980750 -0.034342040492 -0.160380827123 -0.030819773159 -0.157985845630 0.938682265432 -0.257276584365
1.686052444000 0.937970605577 -0.228800590201 -0.034449641985 -0.160148835865 -0.030560474647 -0.157776616419 0.938826832779 -0.257972396549
1.687385555000 0.938114741310 -0.230305701279 -0.034621963151 -0.159881982052 -0.030664723897 -0.157394935410 0.938258486287 -0.258980577004
1.688718666000 0.936616459819 -0.232432187166 -0.034822306742 -0.159482581707 -0.031045127652 -0.156939970321 0.938420744639 -0.258812662132
1.690051777000 0.936516461521 -0.233214424277 -0.034737082854 -0.159253040979 -0.031002195297 -0.156605662633 0.938170968026 -0.260330983643
1.691384888000 0.936330472731 -0.232442097302 -0.034511962656 -0.158940116381 -0.030981326533 -0.156509005484 0.938194732049 -0.261249663567
1.692718000000 0.937372285555 -0.232159662808 -0.034532468852 -0.158957704975 -0.031103465114 -0.156360418589 0.938440578043 -0.260750129388
1.694051111000 0.935226178561 -0.232237720887 -0.034753599203 -0.158418588118 -0.030834718240 -0.155978207523 0.938138674702 -0.262043027276
1.695384222000 0.936710687956 -0.232352758401 -0.034518117066 -0.158586437074 -0.031034789543 -0.155853466671 0.938480906974 -0.263101176791
1.696717333000 0.937452802433 -0.234235991116 -0.034698265865 -0.158275448312 -0.031111814339 -0.155557155727 0.937738127073 -0.263261622033
1.698050444000 0.936953811951 -0.232641336766 -0.034496793523 -0.157816730320 -0.031080465780 -0.155267156579 0.937742499698 -0.263860752469
1.699383555000 0.938065833514 -0.236368857809 -0.034934753308 -0.157903474872 -0.031345597196 -0.155016051138 0.938590030409 -0.263704391003
1.700716666000 0.936395579341 -0.235480004626 -0.034988695628 -0.157435802109 -0.031161000990 -0.154690923853 0.937664555621 -0.265114316272
1.702049777000 0.938461324057 -0.234050911809 -0.034589395811 -0.157662491293 -0.031335728352 -0.154647584824 0.938031484925 -0.265502440713
1.703382888000 0.937622435465 -0.236750162946 -0.035084745521 -0.157179161626 -0.031324666798 -0.154019276868 0.937610872606 -0.266029102253
1.704716000000 0.937487834454 -0.237680246990 -0.034959422657 -0.156827707182 -0.031537819642 -0.153805464962 0.937329106470 -0.267594895274
1.706049111000 0.936561149101 -0.238024937725 -0.035041306480 -0.156484143499 -0.031470361889 -0.153555906944 0.937379993877 -0.267560954306
1.707382222000 0.937802553779 -0.239047690999 -0.035012058995 -0.156686315645 -0.031709198394 -0.153482550002 0.937382552767 -0.268390868289
1.708715333000 0.938426538051 -0.237651825756 -0.034863194934 -0.156538858246 -0.031496922678 -0.153272874166 0.937292515972 -0.268226345338
1.710048444000 0.936440955015 -0.240394997787 -0.035209783492 -0.156159687916 -0.031554055031 -0.152840332859 0.937579575926 -0.268462502495
1.711381555000 0.936442876665 -0.239229702126 -0.035111960421 -0.156079288197 -0.031434686568 -0.152741884137 0.937735367379 -0.269467096217
1.712714666000 0.936643046622 -0.238129838162 -0.034702573595 -0.155890941382 -0.031215690198 -0.152529861669 0.937837996319 -0.269512039309
1.714047777000 0.936981036437 -0.240061042634 -0.034940278772 -0.155532047428 -0.031360384961 -0.151880067252 0.937108784060 -0.270995950438
1.715380888000 0.936366186156 -0.238964932152 -0.035143583112 -0.155187460863 -0.031417456060 -0.151848188200 0.936754062809 -0.271368785984
1.716714000000 0.936662006133 -0.241220027286 -0.034810238983 -0.154951461829 -0.031529993778 -0.151474630240 0.936955035377 -0.271731751253
1.718047111000 0.937527004489 -0.242808022500 -0.035109962740 -0.155157999819 -0.031462786037 -0.151400369969 0.936821194669 -0.272363442245
1.719380222000 0.938104438539 -0.245393648533 -0.035409388379 -0.155075951843 -0.031544778143 -0.151146434294 0.937451827909 -0.273090305384
1.720713333000 0.939231979061 -0.242471160077 -0.035000985955 -0.154541638293 -0.031161136392 -0.151144480141 0.937290593455 -0.273018382085
1.722046444000 0.936566526836 -0.240737418313 -0.034757527270 -0.154899351838 -0.031208094531 -0.150984945387 0.936924480545 -0.275630541483
1.723379555000 0.938026870793 -0.243091483809 -0.034873304893 -0.154316189553 -0.031376222561 -0.150528909049 0.936833338216 -0.275973914430
1.724712666000 0.935314267659 -0.244884043232 -0.034581860554 -0.153699602942 -0.030665514236 -0.150105536904 0.936416190927 -0.273650289906
1.726045777000 0.935701491226 -0.243762068200 -0.034694690057 -0.153707547813 -0.031202706743 -0.149946594823 0.936403733008 -0.275542308840
1.727378888000 0.937154661522 -0.246970161469 -0.034978108110 -0.153478480428 -0.031138980296 -0.149406777956 0.935968193375 -0.274781665811
1.728712000000 0.938477586106 -0.243136194127 -0.034416281208 -0.153913579410 -0.030922580802 -0.149534282139 0.936285987933 -0.275734562438
1.730045111000 0.939401030706 -0.246289155889 -0.034505037548 -0.153674109177 -0.031098701582 -0.149353285701 0.937322613293 -0.276487648448
1.731378222000 0.938491760844 -0.243336293799 -0.034122387273 -0.153391664450 -0.030812667701 -0.149119116642 0.936649851180 -0.276077455444
1.732711333000 0.937545845939 -0.248822444027 -0.034871190773 -0.152791096751 -0.031137136205 -0.148885442117 0.938059360615 -0.277929502849
1.734044444000 0.937724086750 -0.245299800236 -0.033948947427 -0.152825657888 -0.031347534191 -0.148393088288 0.935587995137 -0.282374865507
1.735377555000 0.936452919185 -0.244716939581 -0.034211481102 -0.152176892214 -0.030910283629 -0.148138055148 0.935105805569 -0.280275973787
1.736710666000 0.934375640223 -0.247923093972 -0.034066151503 -0.152116756262 -0.030650378213 -0.148210510975 0.938988441630 -0.278972682368
1.738043777000 0.935564582144 -0.248887424358 -0.034405023810 -0.151847210805 -0.030667749901 -0.147394684104 0.934948406888 -0.279961189483
1.739376888000 0.936281504303 -0.248933886834 -0.033994942739 -0.151817423254 -0.030442295341 -0.147275780876 0.934885060375 -0.279128573716
1.740710000000 0.936114725939 -0.249347714218 -0.034003994882 -0.151799254620 -0.030634329334 -0.147128835135 0.935583840281 -0.281937748815
1.742043111000 0.935741748304 -0.249291939188 -0.034025119006 -0.151430619248 -0.030372867183 -0.147014316363 0.936700540224 -0.279814197702
1.743376222000 0.934952820575 -0.251300318182 -0.034149484248 -0.151099377523 -0.030394592980 -0.146498982503 0.935000860833 -0.281743603512
1.744709333000 0.935502180485 -0.249618048045 -0.033921618655 -0.150726036773 -0.030341370368 -0.146127632970 0.933975335526 -0.283145266306
1.746042444000 0.936613593613 -0.251825949332 -0.033792500085 -0.150812936510 -0.030202323935 -0.146139932761 0.934967945603 -0.280263532993
1.747375555000 0.937062530336 -0.251894477111 -0.033538754436 -0.150797549877 -0.030648074875 -0.145937740615 0.935175892877 -0.285077937736
1.748708666000 0.935508153025 -0.253677830672 -0.033555843878 -0.150334840865 -0.029935457159 -0.145241186041 0.932724793044 -0.280810266686
1.750041777000 0.934426085147 -0.254528876309 -0.033674954808 -0.149987735622 -0.030147551851 -0.144836534195 0.931499382614 -0.284271395524
1.751374888000 0.934528339387 -0.253691967111 -0.033643692940 -0.149366835388 -0.030090320370 -0.144749679720 0.932712362023 -0.285190744057
1.752708000000 0.938083644084 -0.253974952527 -0.033491710919 -0.150461116467 -0.030133802994 -0.144677635774 0.933456670064 -0.283892729099
1.754041111000 0.938018162631 -0.255806019469 -0.034016561317 -0.150011030210 -0.030308814958 -0.144615124269 0.935308647207 -0.285146048497
1.755374222000 0.936109859280 -0.259954250563 -0.033647580659 -0.148686412758 -0.030094575571 -0.143761325908 0.933329942676 -0.286070667277
1.756707333000 0.937880538854 -0.258912778050 -0.033577847042 -0.149507688242 -0.029894162479 -0.143550995041 0.931342501475 -0.286419329585
1.758040444000 0.936456753881 -0.258858485457 -0.033409408289 -0.148816795698 -0.029828562365 -0.143113579411 0.929637002410 -0.284571765015
1.759373555000 0.935789794254 -0.256764473068 -0.032923425682 -0.148733785588 -0.029352331087 -0.142969568284 0.927467182679 -0.285324027603
1.760706666000 0.938363332749 -0.259196617568 -0.033413102077 -0.148713327392 -0.029640585194 -0.142671040965 0.927593942497 -0.287153859730
1.762039777000 0.937452198305 -0.259309311387 -0.033657168378 -0.148311329524 -0.029577602507 -0.142834952009 0.930234087435 -0.286817492960
1.763372888000 0.938888283583 -0.259777667853 -0.032935369240 -0.148185812464 -0.030116596182 -0.142722122996 0.932910112626 -0.288677562622
1.764706000000 0.937073831236 -0.260553236038 -0.033069397207 -0.147396218269 -0.029548164974 -0.142208038312 0.928523386728 -0.288641654577
1.766039111000 0.937337334988 -0.260289507100 -0.032890472656 -0.147643196240 -0.029446504197 -0.142338492627 0.930014983557 -0.287201105825
1.767372222000 0.937441625644 -0.261989594511 -0.033161885398 -0.147159157526 -0.029325757817 -0.141955113550 0.930251464523 -0.288165723632
1.768705333000 0.936944943680 -0.261885333927 -0.032936616536 -0.147113094788 -0.029350087332 -0.141975937246 0.930452366038 -0.288167215081
1.770038444000 0.938088193886 -0.262022429904 -0.032786863470 -0.146989707567 -0.029326773008 -0.141671580083 0.929782606760 -0.289211974300
1.771371555000 0.937742052322 -0.262956203381 -0.032942753771 -0.146525805522 -0.029389671559 -0.141123363563 0.929382499170 -0.290410878706
1.772704666000 0.937178049369 -0.263874956004 -0.032207911287 -0.146304562738 -0.028861141438 -0.141265354323 0.931119728850 -0.286868612438
1.774037777000 0.937329396931 -0.263368311806 -0.032224419781 -0.146176968780 -0.028824795525 -0.140803158603 0.928081273944 -0.290304059556
1.775370888000 0.937586846838 -0.264522957765 -0.032054332733 -0.146006134581 -0.028898990260 -0.140560992166 0.928227291015 -0.290012558021
1.776704000000 0.938457287444 -0.264952380715 -0.032156504718 -0.146006617056 -0.029169246917 -0.140497106909 0.929141597094 -0.291690373789
1.778037111000 0.938194992767 -0.264698793979 -0.031983171690 -0.145748559021 -0.028835675842 -0.140371575801 0.928992919885 -0.291797165112
1.779370222000 0.937331844065 -0.266095729788 -0.031929057666 -0.145054402359 -0.028736234352 -0.139768900647 0.926286508016 -0.292111232471
1.780703333000 0.938795234118 -0.266027308590 -0.031885675524 -0.145114394464 -0.028717882831 -0.139537887037 0.925622487857 -0.292548840551
1.782036444000 0.938424034382 -0.266017570803 -0.031717271254 -0.145093485061 -0.028877042960 -0.139542421746 0.927805424285 -0.293697844964
1.783369555000 0.937716022699 -0.266528263704 -0.031523829235 -0.144297533874 -0.028480540416 -0.139206265774 0.926573231614 -0.295618791805
1.784702666000 0.938012145147 -0.267576086739 -0.031665590650 -0.144091759389 -0.028339248503 -0.139148219321 0.926171120931 -0.294027462060
1.786035777000 0.937994482534 -0.266577342713 -0.031656027626 -0.144251852774 -0.028266293313 -0.139065939315 0.927122174276 -0.294450358928
1.787368888000 0.937777512865 -0.267174703541 -0.031437064204 -0.143851200950 -0.028374704011 -0.138706836717 0.927290338978 -0.296704855648
1.788702000000 0.938213744750 -0.267553447018 -0.031225181751 -0.143708895962 -0.028265558357 -0.138582503305 0.927407589928 -0.296462392440
1.790035111000 0.937710367890 -0.268609833183 -0.031311673936 -0.143616675701 -0.028190972805 -0.138297871626 0.926951701726 -0.298072052465
1.791368222000 0.937542050843 -0.268202699031 -0.031465762578 -0.143226782103 -0.028009824333 -0.138503933586 0.928386587945 -0.297431766068
1.792701333000 0.937802819978 -0.268034303411 -0.030964479044 -0.143149641898 -0.027932636651 -0.138158605308 0.925879847966 -0.298855167284
1.794034444000 0.937900230207 -0.268661672206 -0.031120026192 -0.143327431389 -0.027916688248 -0.137962710353 0.927363507810 -0.298460752939
1.795367555000 0.938132433235 -0.269007432969 -0.031144367692 -0.142931037894 -0.027950862442 -0.138223530750 0.929082785959 -0.299828862907
1.796700666000 0.937808735157 -0.269387442102 -0.030750399891 -0.142763113982 -0.027634847033 -0.137802756176 0.927466547136 -0.299488160023
1.798033777000 0.937552641382 -0.269858492974 -0.030810703128 -0.142462398656 -0.027415546715 -0.137605637225 0.927822017684 -0.300632546741
1.799366888000 0.937188086734 -0.270330399449 -0.030773278416 -0.142425081124 -0.027344897379 -0.137296599432 0.927956504552 -0.301837433317
1.800700000000 0.938195948971 -0.270832789458 -0.030088964901 -0.141840953192 -0.027525637334 -0.136255925055 0.923059471094 -0.308561472945
1.802033111000 0.936757943245 -0.271816382098 -0.030784461464 -0.141803132762 -0.027152039066 -0.136648302896 0.925046655476 -0.302394022612
1.803366222000 0.936863582669 -0.272931720302 -0.030701165975 -0.141840755154 -0.026957925703 -0.136234130953 0.925613933252 -0.302554596158
1.804699333000 0.937444494045 -0.271323524989 -0.030638310727 -0.141485476999 -0.027312938030 -0.136425694399 0.925666312936 -0.303984855434
1.806032444000 0.937261202740 -0.272352293828 -0.030628705383 -0.141464389009 -0.027394085060 -0.136353028582 0.925429314617 -0.305247219811
1.807365555000 0.936990334596 -0.273652578615 -0.030690429042 -0.141250230147 -0.027321269265 -0.136214109090 0.926524083920 -0.307010174410
1.808698666000 0.936425528684 -0.273853850444 -0.030256511631 -0.141172989619 -0.027410644741 -0.136044878372 0.927443424278 -0.306313739103
1.810031777000 0.936104220270 -0.273562002533 -0.029933571684 -0.141063574048 -0.026802627924 -0.135860027337 0.925036344225 -0.305265356091
1.811364888000 0.936170274530 -0.275232609512 -0.030262010671 -0.140788281009 -0.026565029383 -0.135523862030 0.924735649571 -0.305370272472
1.812698000000 0.936168870547 -0.275377912672 -0.030052590395 -0.140640476300 -0.026686971143 -0.135463381466 0.925039161637 -0.306862116019
1.814031111000 0.935453332789 -0.275439937728 -0.029848378354 -0.140570323446 -0.026457580526 -0.135656482456 0.924336517344 -0.306541462709
1.815364222000 0.934540831034 -0.275582944682 -0.029851856687 -0.140167256862 -0.026359405768 -0.135606095166 0.925898273131 -0.308180219800
1.816697333000 0.935448406831 -0.276695920467 -0.029746114839 -0.140115347560 -0.026287969260 -0.135255585572 0.925383073225 -0.308309119922
1.818030444000 0.935047559737 -0.277254687144 -0.029675149504 -0.140015011060 -0.025928087630 -0.135115970884 0.925281113113 -0.308220041465
1.819363555000 0.935108974114 -0.276471187042 -0.029641473187 -0.139921011646 -0.026230398478 -0.134996887958 0.924815467948 -0.309519821043
1.820696666000 0.935210498271 -0.278641493241 -0.029697974862 -0.139721869967 -0.026030260318 -0.134893587225 0.924378430055 -0.309679599591
1.822029777000 0.933922621502 -0.278173375922 -0.029477034281 -0.139706430868 -0.025891478671 -0.134817489434 0.925489869486 -0.309630019018
1.823362888000 0.935237189679 -0.279091642550 -0.029433921208 -0.139647649724 -0.025589794962 -0.134466416671 0.924692632101 -0.309871421661
1.824696000000 0.934811935249 -0.280273292732 -0.029533291281 -0.139474439469 -0.025437951383 -0.134573846823 0.924334544734 -0.310588989461
1.826029111000 0.935478342404 -0.280827282036 -0.029372830822 -0.139420823085 -0.025499252899 -0.134462033792 0.925064704077 -0.310840911920
1.827362222000 0.935022948374 -0.281841726510 -0.029313838860 -0.139456698104 -0.025473722437 -0.134267095297 0.924955532518 -0.310976149684
1.828695333000 0.933897323679 -0.281347215681 -0.028992209947 -0.139063476028 -0.025464907788 -0.134314192464 0.924048682597 -0.312310642006
1.830028444000 0.935169781988 -0.282255147828 -0.029211429606 -0.139188041513 -0.025303986000 -0.133968911664 0.923891053751 -0.312155477747
1.831361555000 0.934536732828 -0.283494396670 -0.029130249703 -0.139062692228 -0.025453391697 -0.134064292669 0.924272779754 -0.312738353862
1.832694666000 0.934535969777 -0.282846794445 -0.028814234945 -0.139062391571 -0.025153031440 -0.134006269016 0.924167162537 -0.312746974283
1.834027777000 0.934560211752 -0.283503024639 -0.028759986303 -0.138883327582 -0.025222011234 -0.133720870226 0.924140203464 -0.313830787511
1.835360888000 0.935153947167 -0.283515428887 -0.028754741991 -0.138952898577 -0.025093678544 -0.133796168523 0.923923569358 -0.314215068510
1.836694000000 0.934621283443 -0.285765315579 -0.028881084803 -0.138898129361 -0.025170757971 -0.133728952015 0.924011146449 -0.314415432829
1.838027111000 0.935772475939 -0.286256415865 -0.028727077343 -0.138895517236 -0.025128884422 -0.133575607375 0.923641251909 -0.314816060105
1.839360222000 0.934756812022 -0.285722737233 -0.028750979886 -0.138603143487 -0.024996655521 -0.133759328969 0.923290285031 -0.315132314294
1.840693333000 0.934638318758 -0.286404479542 -0.028459600777 -0.138552605446 -0.024732050620 -0.133698508751 0.923717541445 -0.315776467223
1.842026444000 0.934632853407 -0.286455948969 -0.028511712895 -0.138516335585 -0.024891313570 -0.133757764192 0.923571185348 -0.316154311889
1.843359555000 0.934758533951 -0.286574996721 -0.028346707691 -0.138356971739 -0.024850087691 -0.133543984269 0.923905590496 -0.315955060344
1.844692666000 0.934447104066 -0.286115064719 -0.028340288850 -0.138427833880 -0.024680771644 -0.133682048703 0.923714499548 -0.316890430038
1.846025777000 0.934388697628 -0.287989989549 -0.028284676647 -0.138316565629 -0.024670194617 -0.133615038096 0.923192427959 -0.317366517198
1.847358888000 0.934187761440 -0.287108208910 -0.028060344003 -0.138254896405 -0.024658050608 -0.133574764073 0.923041344080 -0.317205961718
1.848692000000 0.934315745169 -0.287728230208 -0.028096448126 -0.138141529258 -0.024636078041 -0.133661656889 0.923864396864 -0.317394280212
1.850025111000 0.935433997209 -0.288011562240 -0.028161287700 -0.138242270754 -0.024738344330 -0.133605521522 0.923086604566 -0.318967037340
1.851358222000 0.935858961178 -0.290413903124 -0.028110655108 -0.138072077093 -0.024681917432 -0.133500908565 0.922398910196 -0.319983932656
1.852691333000 0.933519475762 -0.290212669015 -0.028135170408 -0.137823815496 -0.024584604542 -0.133375075581 0.923238100567 -0.319029105526
1.854024444000 0.933675158284 -0.289880792219 -0.028078321044 -0.137985371029 -0.024496702568 -0.133455828119 0.922654952933 -0.320066955831
1.855357555000 0.933455930613 -0.290613500639 -0.028194717509 -0.137699863183 -0.024601467723 -0.133367992118 0.921622322963 -0.321189450926
1.856690666000 0.932788834228 -0.290313769106 -0.028059409389 -0.137841844768 -0.024543063083 -0.133525213350 0.923178537120 -0.320979956918
1.858023777000 0.933136918569 -0.291798737469 -0.028277015025 -0.137651396860 -0.024521694382 -0.133436927036 0.922575284488 -0.321004658524
1.859356888000 0.934059491724 -0.291259167167 -0.027975393416 -0.137641687402 -0.024531634824 -0.133416113624 0.922118401867 -0.321261440451
1.860690000000 0.932653239049 -0.291627743134 -0.028129504629 -0.137760864440 -0.024420037082 -0.133553225923 0.922654943976 -0.320669946146
1.862023111000 0.934077181329 -0.291089281094 -0.028066513454 -0.137608719995 -0.024425038302 -0.133512467351 0.921728968436 -0.321311978507
1.863356222000 0.933855263672 -0.291293522813 -0.028068612999 -0.137639276208 -0.024633687402 -0.133686772218 0.922835137308 -0.322399797660
1.864689333000 0.933678971823 -0.292331169243 -0.028298466417 -0.137454517100 -0.024826741638 -0.133552854884 0.922890584048 -0.323716703391
1.866022444000 0.933597238684 -0.291777808841 -0.028267214644 -0.137598667934 -0.024675945133 -0.133653718163 0.923076721247 -0.323030400381
1.867355555000 0.932465972531 -0.294024763715 -0.028323763508 -0.137427844248 -0.024879770327 -0.133377071464 0.922430369240 -0.325506356084
1.868688666000 0.932861411870 -0.293218241431 -0.028598083333 -0.137298548162 -0.024783829382 -0.133435804765 0.921998236423 -0.325976071760
1.870021777000 0.932790973195 -0.294496489517 -0.028651822650 -0.137115188510 -0.024875190963 -0.133397059544 0.922411740000 -0.324583183623
1.871354888000 0.932365407814 -0.293134240875 -0.028567183532 -0.137151214595 -0.024697485861 -0.133549608852 0.921783721406 -0.323745168398
1.872688000000 0.933271307583 -0.294585450786 -0.028845375758 -0.137008236429 -0.024994011231 -0.133439410704 0.923169684291 -0.325449541164
1.874021111000 0.933039658032 -0.295763644035 -0.029012056199 -0.136860053208 -0.025068564903 -0.133350160818 0.922829720815 -0.327142169086
1.875354222000 0.932926597327 -0.294981901910 -0.028691150433 -0.136868524854 -0.025184614427 -0.133156637467 0.922379488399 -0.327781062586
1.876687333000 0.932700448344 -0.295847247913 -0.028847372344 -0.136768605015 -0.025244362940 -0.133061809231 0.921761610286 -0.328734032085
1.878020444000 0.933093563261 -0.296215740863 -0.029163382443 -0.137047364568 -0.025355450200 -0.133231760130 0.923024976249 -0.327588381827
1.879353555000 0.932908876653 -0.295655804643 -0.029209706632 -0.136884127454 -0.025465408587 -0.133400795875 0.922812582542 -0.328080899554
1.880686666000 0.932223793526 -0.295872940073 -0.029453856437 -0.136657088984 -0.025559649362 -0.133238869414 0.923124559008 -0.328771214102
1.882019777000 0.932162478926 -0.297403138469 -0.029412765373 -0.136514129707 -0.025561550350 -0.133148851334 0.923004001636 -0.327762307562
1.883352888000 0.931729195270 -0.297328029157 -0.029458848419 -0.136592189828 -0.025658356062 -0.133123214114 0.922363468512 -0.327954505606
1.884686000000 0.932220585648 -0.296714899666 -0.029555494817 -0.136289429356 -0.025864004276 -0.133013447935 0.922018357602 -0.329767207165
1.886019111000 0.931641831391 -0.296701858471 -0.029578215647 -0.136426560793 -0.025909305767 -0.132963343219 0.922473054716 -0.330555277563
1.887352222000 0.932026368411 -0.297481636525 -0.029751118221 -0.136046224908 -0.025995605098 -0.132883856907 0.922806524699 -0.329629102166
1.888685333000 0.931509478476 -0.297707297082 -0.029803116503 -0.135927979344 -0.026132591951 -0.132525487882 0.921741875229 -0.330684485670
1.890018444000 0.931229732116 -0.298293447479 -0.029902183109 -0.135867474998 -0.026258717040 -0.132742792780 0.922796774911 -0.331536155860
1.891351555000 0.931437818513 -0.297848161810 -0.030152756481 -0.135730745953 -0.026363932916 -0.132577037904 0.921861794363 -0.332099119752
1.892684666000 0.931656016227 -0.298403686617 -0.030256520005 -0.135734358722 -0.026419824031 -0.132458563860 0.922359061596 -0.331804354654
1.894017777000 0.931447094172 -0.298389525094 -0.030457484031 -0.135563523087 -0.026490601567 -0.132494226493 0.922417577034 -0.332173736446
1.895350888000 0.931193854334 -0.298538832640 -0.030601415723 -0.135295435930 -0.026805552624 -0.132439563412 0.923258342261 -0.333134365028
1.896684000000 0.930975476824 -0.298918722779 -0.030811173855 -0.135111444284 -0.026932403219 -0.132288475152 0.923127497074 -0.333463947743
1.898017111000 0.931162264592 -0.299108606729 -0.030807122114 -0.135107613841 -0.027007268941 -0.132229227430 0.922636118592 -0.333781883889
1.899350222000 0.930363963144 -0.299890220796 -0.031016634140 -0.135019126008 -0.027029714023 -0.131830852131 0.922321736736 -0.334366381430
1.900683333000 0.930333785564 -0.299432490721 -0.030934883316 -0.134797659822 -0.027134617412 -0.131824116087 0.923153171150 -0.334153887056
1.902016444000 0.930361371799 -0.300642580457 -0.031194933242 -0.134716187723 -0.027262978925 -0.131596778653 0.921421744460 -0.335815280737
1.903349555000 0.930594603139 -0.300631506163 -0.031507578462 -0.134544836010 -0.027673216022 -0.131676150673 0.923177504719 -0.335671493801
1.904682666000 0.930185439840 -0.300794631177 -0.031554607950 -0.134354694593 -0.027663429358 -0.131577838226 0.923092981467 -0.336491494165
1.906015777000 0.930169440290 -0.300504584591 -0.031799837057 -0.134049027086 -0.028025706016 -0.131269885396 0.922343295314 -0.338002799271
1.907348888000 0.929745230654 -0.300972613459 -0.031962872517 -0.133766825966 -0.027869557073 -0.131239868713 0.923362822158 -0.337126189052
1.908682000000 0.929422503723 -0.301341800137 -0.032120761461 -0.133740853181 -0.027811012277 -0.131135323143 0.923005454166 -0.336196756689
1.910015111000 0.929475812399 -0.301675131040 -0.032229619586 -0.133617460971 -0.028180883577 -0.130722004251 0.921857326920 -0.337812650050
1.911348222000 0.929307705430 -0.301960811676 -0.032304695641 -0.133369844216 -0.028386346397 -0.130640749665 0.923789595554 -0.338610928478
1.912681333000 0.928848480004 -0.302021539249 -0.032454259068 -0.133156915666 -0.028452750996 -0.130601429365 0.922599693466 -0.338633429132
1.914014444000 0.928495261860 -0.301936368973 -0.032589057881 -0.133081931754 -0.028495298465 -0.130346877929 0.922111602150 -0.338864662300
1.915347555000 0.928730984881 -0.302266667892 -0.032822330909 -0.132922374349 -0.028586888874 -0.130223715187 0.923357757585 -0.339462925443
1.916680666000 0.928369924064 -0.302483334279 -0.032973293814 -0.132727779426 -0.028884178499 -0.130336731178 0.923881443411 -0.340978591076
1.918013777000 0.929179791445 -0.302532297648 -0.032950053613 -0.132623421138 -0.028928004141 -0.129970441273 0.921899705470 -0.340584825559
1.919346888000 0.928505273626 -0.302756365933 -0.033085399161 -0.132340747600 -0.029071333051 -0.129907652909 0.923018512912 -0.341491583436
1.920680000000 0.927630575293 -0.303169217107 -0.033435852937 -0.132095581554 -0.029197118135 -0.129442354610 0.921862505383 -0.342251086994
1.922013111000 0.927058519429 -0.303556032266 -0.033488546388 -0.131868451139 -0.029138428930 -0.129485581530 0.922657418828 -0.342034931145
1.923346222000 0.927081862707 -0.303328689315 -0.033768923881 -0.131578628684 -0.029402207127 -0.129198635911 0.922489397942 -0.342055394977
1.924679333000 0.928321771585 -0.302995207113 -0.033548670142 -0.131414852236 -0.029445585372 -0.128991000463 0.921935216261 -0.342733571575
1.926012444000 0.927124579768 -0.304349967892 -0.033925256097 -0.131305317858 -0.029545258760 -0.128708589269 0.922645928118 -0.343105242777
1.927345555000 0.926703702411 -0.305060084961 -0.033920355591 -0.131108822991 -0.029763274664 -0.128443477686 0.921799769567 -0.343877855712
1.928678666000 0.927538513408 -0.306270933987 -0.034095688737 -0.131129101749 -0.029818551711 -0.128305829932 0.922115319920 -0.343674515098
1.930011777000 0.926490241757 -0.305318774737 -0.034167315190 -0.130763064593 -0.030096963496 -0.127972485379 0.921979374498 -0.344115566573
1.931344888000 0.926895308012 -0.305454048702 -0.034197891868 -0.130354737229 -0.030099412581 -0.127831663572 0.921619846169 -0.344449483352
1.932678000000 0.926966145515 -0.306618436348 -0.034424686760 -0.130449641129 -0.030230014969 -0.127556059384 0.921256934828 -0.345260034600
1.934011111000 0.926831954317 -0.307100149403 -0.034451071354 -0.130073145860 -0.030132818853 -0.127333258123 0.921745390473 -0.346541444428
1.935344222000 0.926451686792 -0.307214276303 -0.034583375295 -0.130058540949 -0.030292274172 -0.127267313639 0.921150048204 -0.347000912253
1.936677333000 0.924543213197 -0.308805012268 -0.034893216481 -0.129506719251 -0.030468995345 -0.127002110919 0.921891581508 -0.346599912158
1.938010444000 0.924984341572 -0.308743369656 -0.034887417914 -0.129307409676 -0.030437713740 -0.126709563854 0.921016579166 -0.347381000050
1.939343555000 0.925866805006 -0.309273956581 -0.035062840632 -0.129199279186 -0.030488488437 -0.126570974386 0.920660364373 -0.347816894916
1.940676666000 0.925817851598 -0.308899738875 -0.034941042817 -0.129156962695 -0.030551407059 -0.126269908583 0.921446031104 -0.348151603263
1.942009777000 0.924892983633 -0.308615387722 -0.035119067517 -0.128764256057 -0.030497649534 -0.126069974580 0.921092841732 -0.348408729209
1.943342888000 0.925351430254 -0.309478509020 -0.035204214603 -0.128524241680 -0.030637304508 -0.125779163793 0.921231381053 -0.348868659561
1.944676000000 0.925654205643 -0.310045012721 -0.035222927512 -0.128490632513 -0.030708386726 -0.125672666890 0.921082161079 -0.348940372260
1.946009111000 0.924480216233 -0.310500939971 -0.035243922232 -0.128147276899 -0.030774207203 -0.125392550285 0.922011022420 -0.349798873956
1.947342222000 0.924155765303 -0.311888873839 -0.035397355008 -0.127998417022 -0.030831290484 -0.125154493469 0.920321069114 -0.351117407136
1.948675333000 0.925419626665 -0.310083342773 -0.035339054651 -0.127814191453 -0.030932201362 -0.125017852997 0.920130828035 -0.350577742148
1.950008444000 0.923771225121 -0.310363462676 -0.035345731972 -0.127388078493 -0.030740437787 -0.124613688873 0.921459165271 -0.349602830766
1.951341555000 0.925637267494 -0.312825866504 -0.035666401338 -0.127401721941 -0.030969893110 -0.124426966123 0.920091453279 -0.351231905820
1.952674666000 0.923715633553 -0.313475647716 -0.035716708379 -0.126894664220 -0.030934174306 -0.124243743499 0.920997006122 -0.351703127220
1.954007777000 0.920980247642 -0.312921072093 -0.035562521855 -0.126659421428 -0.030985230084 -0.123798666129 0.919255910206 -0.351961936843
1.955340888000 0.924591536948 -0.311251483369 -0.035695703588 -0.126596273348 -0.031075970238 -0.123572199252 0.919784616528 -0.352971491035
1.956674000000 0.922935583139 -0.312779804630 -0.035488367867 -0.126499303469 -0.031194818270 -0.123492480901 0.921162845329 -0.353575159530
1.958007111000 0.924548064246 -0.314098222586 -0.035536846436 -0.126152203884 -0.031222999550 -0.122980867648 0.919620951295 -0.353340845232
1.959340222000 0.926345198837 -0.310820690881 -0.035312911712 -0.126071008470 -0.031193708856 -0.123148967622 0.920976471496 -0.353089944821
1.960673333000 0.922956152063 -0.312724390396 -0.035456775030 -0.125602054616 -0.031121461357 -0.122642207099 0.918801169238 -0.353887047085
1.962006444000 0.924423777699 -0.314013222322 -0.035598230291 -0.125601746284 -0.031243555360 -0.122664017770 0.920452366335 -0.353173876967
1.963339555000 0.923339296746 -0.314992553811 -0.035905375657 -0.125467531034 -0.031272282464 -0.122276039772 0.919809131714 -0.354174501835
1.964672666000 0.923081959114 -0.314091430330 -0.035679580247 -0.125204860673 -0.031320165633 -0.122089804438 0.919952603357 -0.355093493821
1.966005777000 0.924155999799 -0.315601673432 -0.035794144001 -0.125027916930 -0.031158150796 -0.121676400407 0.918663998372 -0.354355245269
1.967338888000 0.924855286232 -0.316767568736 -0.035943797508 -0.124746063846 -0.031438643486 -0.121453246048 0.918751590169 -0.355693588213
1.968672000000 0.923413597297 -0.316704655530 -0.035858434451 -0.124656839956 -0.031329713993 -0.121188045578 0.920526730552 -0.356548117670
1.970005111000 0.925110357337 -0.318456375749 -0.036057354372 -0.124397296473 -0.031315278127 -0.121012621371 0.918021622857 -0.355281029057
1.971338222000 0.920574476516 -0.315580689700 -0.035874378747 -0.123919347862 -0.031118468851 -0.120832793339 0.918737358636 -0.356245179133
1.972671333000 0.924514324465 -0.317184820895 -0.035561983038 -0.123776838943 -0.031363882443 -0.120588442399 0.918891371444 -0.356431652751
1.974004444000 0.924015642652 -0.319515552893 -0.036034714535 -0.123889898474 -0.031240396317 -0.120577122345 0.920317292588 -0.356237673968
1.975337555000 0.922191234805 -0.318855561218 -0.035774583335 -0.123309183222 -0.031086847615 -0.120271828268 0.919473700672 -0.356841632768
1.976670666000 0.922644358310 -0.319127909013 -0.035854271745 -0.123225265735 -0.031099660614 -0.119864441332 0.917272060270 -0.358610042044
1.978003777000 0.924094725331 -0.318690996134 -0.035913626543 -0.123100717173 -0.031162549997 -0.119554028625 0.916856684500 -0.356923760715
1.979336888000 0.923615733794 -0.318390787874 -0.035732343524 -0.122923482876 -0.031289980699 -0.119479472543 0.918903990326 -0.359267656306
1.980670000000 0.919546451238 -0.319242063260 -0.035900035010 -0.122357158282 -0.031485624616 -0.119101682342 0.917729093727 -0.362281828333
1.982003111000 0.922002080589 -0.320902070234 -0.035606828676 -0.121969227088 -0.031372324178 -0.118688170008 0.915531266571 -0.361028329592
1.983336222000 0.921562728460 -0.321005652746 -0.035925845525 -0.122058692948 -0.031114368659 -0.118581006981 0.916271393416 -0.360309702537
1.984669333000 0.921086275238 -0.322239528067 -0.035960306238 -0.122012566814 -0.031184269572 -0.118532803712 0.917628415239 -0.359705021434
1.986002444000 0.921554761976 -0.323394418131 -0.035986462685 -0.121666179574 -0.031108393447 -0.117992120283 0.915371936350 -0.360782178031
1.987335555000 0.920024891363 -0.325305393218 -0.035948248836 -0.121117972637 -0.031349921666 -0.117593788537 0.915792515581 -0.363594899217
1.988668666000 0.921481401562 -0.324273808852 -0.035608636818 -0.121321909447 -0.030988834499 -0.117614430744 0.916079669967 -0.360581101912
1.990001777000 0.920280117207 -0.327745934617 -0.036005771593 -0.120381358733 -0.031139413910 -0.117134867050 0.914996369932 -0.362478458097
1.991334888000 0.919098152815 -0.324963089591 -0.035681500796 -0.120649871913 -0.030945365659 -0.117036334761 0.916418508151 -0.361693049489
1.992668000000 0.920072977490 -0.327024445219 -0.035721340090 -0.120493013562 -0.031224832581 -0.116827062016 0.916852833972 -0.363346758282
1.994001111000 0.920710873421 -0.327096117791 -0.035574985221 -0.120402691398 -0.031337828101 -0.116269624557 0.913819790205 -0.363621042084
1.995334222000 0.918788416495 -0.325395525157 -0.035665710782 -0.120082932138 -0.030884689721 -0.116283111612 0.914024855038 -0.364075943726
1.996667333000 0.919115086649 -0.327414989234 -0.035457250056 -0.119945466752 -0.030941462329 -0.116013003062 0.914404281706 -0.364473015531
1.998000444000 0.918537442267 -0.327664510952 -0.035577370658 -0.119394788663 -0.030949979866 -0.116014840798 0.917357374191 -0.364822942884
1.999333555000 0.917713556381 -0.330258960381 -0.036048377065 -0.119788971243 -0.030781118321 -0.115578222878 0.914271332940 -0.363612137020
2.000666666000 0.918610653368 -0.328428517255 -0.035699094002 -0.119437590662 -0.030852567315 -0.115732965674 0.916856302398 -0.365394292449
2.001999777000 0.920725459236 -0.328774209114 -0.035426456968 -0.119092411664 -0.030933596739 -0.115191848403 0.913744874572 -0.366030781960
2.003332888000 0.919638224859 -0.329690944984 -0.035413852296 -0.118866170218 -0.030963623697 -0.114715983674 0.911824011891 -0.368324687267
2.004666000000 0.917076488080 -0.334413416572 -0.035935722373 -0.118782020650 -0.030907845471 -0.114344496296 0.913915414495 -0.367133243626
2.005999111000 0.917967567437 -0.330643647695 -0.035413664514 -0.118778770568 -0.030644461364 -0.114349323681 0.911661200913 -0.366599024536
2.007332222000 0.916257236945 -0.333886958961 -0.035543444116 -0.118478918971 -0.030560487698 -0.114106327539 0.914221660595 -0.366284628015
2.008665333000 0.916618599789 -0.332986685923 -0.034939060770 -0.117944135570 -0.030551711381 -0.113850382811 0.911739634222 -0.367872593509
2.009998444000 0.918553771806 -0.333045461109 -0.035289919064 -0.118322097388 -0.030329113149 -0.114022721541 0.911815320584 -0.365264906262
2.011331555000 0.917105860994 -0.333236193085 -0.034842972431 -0.117763285939 -0.030467889691 -0.113357950957 0.911756521876 -0.369121972506
2.012664666000 0.917681277251 -0.335974395368 -0.035097473576 -0.117852530875 -0.030294658125 -0.112836865892 0.912698970550 -0.369426113618
2.013997777000 0.917459893010 -0.336318871515 -0.035108484778 -0.117147763493 -0.030353078088 -0.112987962584 0.910431303556 -0.368095892962
2.015330888000 0.918118359585 -0.336190601292 -0.035182848085 -0.116931849844 -0.030748489860 -0.112793367200 0.912339838644 -0.372199798162
2.016664000000 0.917925835724 -0.336401843610 -0.035049469057 -0.116754017448 -0.030643281761 -0.112345577723 0.910974593140 -0.372258327040
2.017997111000 0.916544208343 -0.338088788262 -0.035014470778 -0.116698374816 -0.030488086940 -0.112000084438 0.909946828158 -0.373172251192
2.019330222000 0.916796564746 -0.337186365330 -0.034424100650 -0.116551105832 -0.030076462211 -0.112077806795 0.909375861757 -0.370758699503
2.020663333000 0.915761873346 -0.337148537849 -0.034438336394 -0.116171664351 -0.030141562923 -0.111866917145 0.911710865328 -0.370688746804
2.021996444000 0.916986410672 -0.335881339542 -0.034701601423 -0.116391089709 -0.029815006454 -0.111572393232 0.910130144086 -0.374029041571
2.023329555000 0.915078233229 -0.337538004492 -0.034597877010 -0.115999904319 -0.030373576617 -0.111168697318 0.908437145579 -0.374662452869
2.024662666000 0.915116863985 -0.339297720792 -0.034373366022 -0.115796761482 -0.030102343524 -0.111106118086 0.909554022291 -0.374068640625
2.025995777000 0.916041637138 -0.338300598441 -0.034304158464 -0.115723388902 -0.029811442269 -0.110903475169 0.907352164708 -0.371652603018
2.027328888000 0.916430488217 -0.340992351226 -0.034048983893 -0.115488413351 -0.029961387730 -0.110739440067 0.907441423136 -0.373240240855
2.028662000000 0.914853505386 -0.339960231570 -0.033694552310 -0.115295123402 -0.029940782988 -0.110591137578 0.908947113434 -0.376221483548
2.029995111000 0.917208943091 -0.340243913029 -0.034076231181 -0.115255649669 -0.029793970721 -0.110057313672 0.906544401202 -0.375215080139
2.031328222000 0.915363095200 -0.341430158550 -0.033981257724 -0.114980925822 -0.029635937356 -0.109895114374 0.907420277446 -0.376268005203
2.032661333000 0.913477007578 -0.342288617682 -0.034250369000 -0.114550580925 -0.029744362206 -0.110120821727 0.907938364861 -0.375957449127
2.033994444000 0.914959049634 -0.342125548192 -0.033770829443 -0.114387447276 -0.029689773960 -0.109377299988 0.907147307256 -0.378232232535
2.035327555000 0.914885707811 -0.344518034612 -0.034106486376 -0.114274642442 -0.029552406347 -0.108978330638 0.906954510827 -0.378188548034
2.036660666000 0.916282437473 -0.344183139516 -0.033680468066 -0.114297777037 -0.029118933362 -0.109035309590 0.905789682818 -0.375808603516
2.037993777000 0.915488364313 -0.345587014525 -0.034045097199 -0.114156505628 -0.029287225297 -0.108496290235 0.904643721901 -0.379152174365
2.039326888000 0.915458847022 -0.344638805640 -0.033555738683 -0.113746882650 -0.029169182348 -0.108369302135 0.905653497704 -0.379177701497
2.040660000000 0.914761441582 -0.345494906148 -0.032972614741 -0.113757833341 -0.028990373755 -0.108220494956 0.903871772587 -0.377983448867
2.041993111000 0.914858617868 -0.345929721633 -0.033228015078 -0.113144489699 -0.029351898354 -0.107988250580 0.904541789264 -0.381518153377
2.043326222000 0.915847171429 -0.346727089879 -0.033204297415 -0.113241145448 -0.028809591311 -0.107786588773 0.904647861085 -0.380075266068
2.044659333000 0.914265058103 -0.347592702973 -0.033004369543 -0.113327724159 -0.028868000561 -0.107692453476 0.904210870502 -0.380414841054
2.045992444000 0.916679641879 -0.347862292473 -0.033143186505 -0.113118068925 -0.028728115365 -0.107375092960 0.904862713462 -0.381417624263
2.047325555000 0.915547693580 -0.347377839466 -0.032759993969 -0.112783135029 -0.028791224184 -0.107609590145 0.905000642172 -0.381074639173
2.048658666000 0.914444194334 -0.347101535139 -0.032553430403 -0.112509803069 -0.028496729730 -0.107077612069 0.903712853899 -0.381778126318
2.049991777000 0.915020214731 -0.348099299090 -0.032819632732 -0.112436184437 -0.028445255188 -0.106921136271 0.905096860931 -0.382648692068
2.051324888000 0.913990239514 -0.349156520778 -0.032550810192 -0.112083554554 -0.028181189100 -0.106941361947 0.904688058649 -0.382632071195
2.052658000000 0.914091703288 -0.350035698138 -0.032280397447 -0.111936498158 -0.028147590649 -0.106515562137 0.903882928786 -0.382596249126
2.053991111000 0.913506489999 -0.350705407653 -0.032339067460 -0.111405377919 -0.028358768878 -0.106472977195 0.903373224736 -0.384465917708
2.055324222000 0.913948842438 -0.351143772801 -0.031991714184 -0.111867228846 -0.028071624666 -0.105847048246 0.902775721953 -0.384270399041
2.056657333000 0.913648787441 -0.350759541770 -0.032066100647 -0.111265390489 -0.028059678693 -0.105807628371 0.902859554454 -0.385201299293
2.057990444000 0.912648537549 -0.351462755711 -0.032152823169 -0.110697147124 -0.027430273645 -0.105951864052 0.903385573067 -0.386301748211
2.059323555000 0.913627341484 -0.350965603348 -0.031640043654 -0.110807818577 -0.027706437625 -0.105545820216 0.902522859853 -0.386634945890
2.060656666000 0.912123388010 -0.351823579485 -0.031600341790 -0.110760614137 -0.027223488077 -0.105176576275 0.902265973316 -0.387074410013
2.061989777000 0.911973652029 -0.351899148983 -0.031302504072 -0.110835429946 -0.027133105531 -0.105107705782 0.902973243060 -0.387545859631
2.063322888000 0.912224004712 -0.353632315993 -0.031520397153 -0.110551743056 -0.027116220827 -0.105055718432 0.902368075574 -0.388189197300
2.064656000000 0.911901112356 -0.353993403648 -0.031452913104 -0.110388756368 -0.027064915187 -0.104834750508 0.902238401716 -0.387731031211
2.065989111000 0.912703389838 -0.354552188167 -0.030934354462 -0.110258762768 -0.026785200206 -0.104589766488 0.902257995166 -0.388845255571
2.067322222000 0.911306139775 -0.356172919617 -0.031055924641 -0.110174780283 -0.026656917801 -0.104179774492 0.901967198723 -0.389386500935
2.068655333000 0.911438391675 -0.356096757622 -0.030649647319 -0.109877021814 -0.026545108089 -0.104295454593 0.902083990633 -0.389762737637
2.069988444000 0.911361089145 -0.356162560301 -0.030831247948 -0.109653790629 -0.026406788468 -0.103997701408 0.901982721642 -0.389400276036
2.071321555000 0.910983173430 -0.357730971559 -0.030389654917 -0.109411944882 -0.026138756838 -0.103755295606 0.901558578078 -0.390390356959
2.072654666000 0.910673050421 -0.358891245445 -0.030193649726 -0.109439207083 -0.026020853446 -0.103727847271 0.902153719208 -0.390976030863
2.073987777000 0.910924035550 -0.358166989756 -0.030088145825 -0.109066888875 -0.026053185127 -0.103503024106 0.901443052066 -0.391509741063
2.075320888000 0.909685896131 -0.359032899957 -0.029931662447 -0.108897023820 -0.025720998815 -0.103283561988 0.901378591233 -0.391139022638
2.076654000000 0.910058313082 -0.360067166995 -0.029979187742 -0.108838194957 -0.025579255313 -0.103122350322 0.901595783400 -0.391634546187
2.077987111000 0.910218281096 -0.361182353614 -0.029693928520 -0.108811803516 -0.025520151313 -0.103021815076 0.901668958940 -0.392490394405
2.079320222000 0.911376958732 -0.360922159194 -0.029223177689 -0.108466424796 -0.025415995739 -0.102898637050 0.901629088878 -0.392698873931
2.080653333000 0.909692283611 -0.362332659812 -0.029183124637 -0.108212916499 -0.025259011468 -0.102633080185 0.900764478749 -0.392774318941
2.081986444000 0.910460889872 -0.362291631192 -0.028926797987 -0.108254191582 -0.024989776997 -0.102504799024 0.900436706057 -0.392525954739
2.083319555000 0.909932267508 -0.363179333660 -0.028822266928 -0.108149946337 -0.024731041925 -0.102341044183 0.900459914475 -0.392648202221
2.084652666000 0.909960013936 -0.363792930982 -0.028802450655 -0.108049320606 -0.024769293130 -0.102098137674 0.900921630613 -0.393094194916
2.085985777000 0.910356250783 -0.363929276257 -0.028518525183 -0.107845191023 -0.024587396159 -0.102198328249 0.900637866947 -0.393917230805
2.087318888000 0.909895808302 -0.365130969804 -0.028371528055 -0.107641084099 -0.024570916452 -0.101934787380 0.900684740206 -0.393507334192
2.088652000000 0.910122173925 -0.365699379921 -0.028099464096 -0.107697334887 -0.024453543386 -0.101855682821 0.899932360959 -0.393776505352
2.089985111000 0.910609110741 -0.364879552259 -0.028258046980 -0.107463461297 -0.024358433684 -0.101972559177 0.900346708247 -0.396314471065
2.091318222000 0.909915454388 -0.367051174964 -0.027868798898 -0.107437250761 -0.023985575497 -0.101603666018 0.899179994574 -0.396044548409
2.092651333000 0.909758066754 -0.366944554817 -0.027756190108 -0.107252249060 -0.023886366512 -0.101709499605 0.901355541334 -0.394877420507
2.093984444000 0.909785091684 -0.367400888165 -0.027595304626 -0.107093273662 -0.023711954297 -0.101474649349 0.900018421963 -0.395972347381
2.095317555000 0.910319461772 -0.368092337163 -0.027364142518 -0.106942809902 -0.023663498731 -0.101318106397 0.899786979256 -0.397164955767
2.096650666000 0.909205631814 -0.369493813528 -0.027490681098 -0.107140573703 -0.023482902505 -0.101252425488 0.900189783995 -0.396545189171
2.097983777000 0.910354487641 -0.369655507475 -0.027291994078 -0.106904194623 -0.023398322411 -0.101266221237 0.899244068573 -0.398542696202
2.099316888000 0.910091308929 -0.370165785454 -0.027030884434 -0.106601006744 -0.023197879134 -0.101101479428 0.898958010098 -0.398933105764
2.100650000000 0.910240051555 -0.369766397757 -0.026830029827 -0.106393988470 -0.023401003648 -0.100908972653 0.898739728931 -0.400375010570
2.101983111000 0.910570569553 -0.370933292666 -0.026675305810 -0.106596137737 -0.022849537156 -0.100932933761 0.899476137629 -0.399088661420
2.103316222000 0.910471977530 -0.370888100021 -0.026333342409 -0.106398197389 -0.022767809212 -0.100758610455 0.897987734572 -0.402009127572
2.104649333000 0.909469458308 -0.371462988735 -0.026477778937 -0.106448473219 -0.022518934688 -0.100886674898 0.900304598448 -0.401193138222
2.105982444000 0.909994699610 -0.371389939502 -0.026343198479 -0.106460847350 -0.022528386408 -0.100899682315 0.899944001779 -0.401354595176
2.107315555000 0.909459941886 -0.373178984799 -0.026118031455 -0.106325512488 -0.022469234818 -0.100936395839 0.899978584815 -0.401451400845
2.108648666000 0.911078595331 -0.372631694472 -0.025848834569 -0.106226140781 -0.022464080567 -0.100684547661 0.898234643686 -0.402034579661
2.109981777000 0.909934663321 -0.373875000357 -0.026033445599 -0.106448811559 -0.021974790991 -0.101102651311 0.900584488308 -0.401064788167
2.111314888000 0.910315121649 -0.373531073772 -0.025734091938 -0.106251193406 -0.021675434087 -0.100831016495 0.899801374763 -0.401023344203
2.112648000000 0.909834933848 -0.372244360265 -0.025500596760 -0.106132122578 -0.021797829661 -0.100943761211 0.897685928188 -0.403683968008
2.113981111000 0.910381259010 -0.374203191322 -0.025354223138 -0.105852438629 -0.021846528855 -0.100578376246 0.898131040738 -0.404742920890
2.115314222000 0.909001417796 -0.375254884977 -0.025293316061 -0.105736812106 -0.021454415353 -0.100552528462 0.899871003778 -0.405042519363
2.116647333000 0.909940267067 -0.375318140581 -0.024987805180 -0.105970226944 -0.021495953748 -0.100762834770 0.897333928404 -0.404566244320
2.117980444000 0.909881678976 -0.374101322533 -0.024790844840 -0.105823729778 -0.021201772045 -0.100926305288 0.898239539281 -0.406027666722
2.119313555000 0.909881711715 -0.374479589172 -0.024679884356 -0.106080603565 -0.021264500345 -0.100872693472 0.899488115317 -0.406181314005
2.120646666000 0.911432576463 -0.377689964583 -0.024773282183 -0.105925819541 -0.020890277106 -0.100639167383 0.896730082927 -0.405552729359
2.121979777000 0.909944315004 -0.376161529192 -0.024692431613 -0.106108045490 -0.020752343520 -0.100529580332 0.898542748900 -0.404231635956
2.123312888000 0.910492805408 -0.376691390826 -0.024738898882 -0.106263018498 -0.020646849529 -0.100517479186 0.896968806064 -0.405930526371
2.124646000000 0.909811484833 -0.375978096587 -0.024183216921 -0.105858014068 -0.020406391259 -0.100487802323 0.896805291057 -0.407509616534
2.125979111000 0.909444716561 -0.378108493925 -0.024377371942 -0.105922351697 -0.020089317773 -0.100629119536 0.897350078244 -0.406362134625
2.127312222000 0.908774735627 -0.377632955145 -0.024134938057 -0.105836511402 -0.020145430367 -0.100998812353 0.897865286279 -0.407095966963
2.128645333000 0.909067231142 -0.376723939119 -0.023984957404 -0.105981756241 -0.019946599786 -0.101154092929 0.897672867263 -0.408155182477
2.129978444000 0.908843539101 -0.378774339434 -0.023967660803 -0.106040248386 -0.019961692209 -0.100754403347 0.896816825365 -0.409241958335
2.131311555000 0.909674636608 -0.379111196332 -0.024185263440 -0.105898581902 -0.019685283465 -0.100835165229 0.897050234353 -0.410133099433
2.132644666000 0.911093617392 -0.377605326359 -0.024011054472 -0.106092679579 -0.020175734138 -0.100927767057 0.896651698633 -0.412792103389
2.133977777000 0.909272631631 -0.379550652741 -0.023893609107 -0.105828933264 -0.019415392551 -0.101352568891 0.898152209979 -0.409951096304
2.135310888000 0.910278828496 -0.381906032004 -0.023888028591 -0.106187651252 -0.019773463088 -0.100857708517 0.896748164285 -0.411688576036
2.136644000000 0.909388792110 -0.378999864126 -0.023546354092 -0.106075307616 -0.019624805523 -0.101680214664 0.898184785240 -0.412397736191
2.137977111000 0.908756778817 -0.378197007071 -0.023486423462 -0.106050718225 -0.019499546961 -0.101612496330 0.898373763634 -0.412753702986
2.139310222000 0.910208871246 -0.380730660717 -0.023628267028 -0.105978839199 -0.019597595152 -0.101634699857 0.898119862242 -0.413575543641
2.140643333000 0.908502389211 -0.380502405547 -0.023601973035 -0.106039383069 -0.019235853854 -0.101579651351 0.897619783029 -0.413561721723
2.141976444000 0.909769091859 -0.381779349946 -0.023696364569 -0.106058201887 -0.019214848673 -0.101996821645 0.898876866544 -0.413498141557
2.143309555000 0.909270314680 -0.380416909929 -0.023584212765 -0.106081604466 -0.019058146453 -0.102144867038 0.898372260889 -0.415153742731
2.144642666000 0.908623533973 -0.382547839763 -0.023467348906 -0.105714843554 -0.019303146823 -0.101629536238 0.897589943288 -0.415776042281
2.145975777000 0.908728865617 -0.382031677719 -0.023546053778 -0.106039489128 -0.019012247573 -0.102198162203 0.898555003289 -0.415724958336
2.147308888000 0.908288343218 -0.380994454738 -0.023269962427 -0.105931511473 -0.019081100525 -0.102328846431 0.897605309343 -0.416656969752
2.148642000000 0.908324659939 -0.382069656284 -0.023364124053 -0.106171779335 -0.018952194884 -0.102140867628 0.897980783214 -0.417847939414
2.149975111000 0.909309531511 -0.382619611243 -0.023756993010 -0.106114059943 -0.019176890699 -0.102175068207 0.899364683471 -0.415573469997
2.151308222000 0.909418974801 -0.382543794348 -0.023429088638 -0.106317771450 -0.019396937389 -0.102145633241 0.897478098157 -0.418301963140
2.152641333000 0.907742968808 -0.382626951711 -0.023420002657 -0.106327035134 -0.018887410458 -0.102435919357 0.898204893110 -0.417475051276
2.153974444000 0.907496429131 -0.383442836861 -0.023682810655 -0.106145912871 -0.019030781352 -0.102705974286 0.898542630029 -0.417575444040
2.155307555000 0.907399836190 -0.383113652233 -0.023431668388 -0.106060574607 -0.019612920146 -0.102640538904 0.896315197976 -0.420646768052
2.156640666000 0.906217533937 -0.385409382262 -0.024175711264 -0.106136551746 -0.019106786519 -0.102947517782 0.899913635298 -0.418760690345
2.157973777000 0.908454499168 -0.384825918393 -0.024055290264 -0.106292657358 -0.019412798643 -0.102982092720 0.899813265359 -0.419398040846
2.159306888000 0.908045904328 -0.385759027000 -0.024100724662 -0.106592300908 -0.019312889476 -0.103170994187 0.898224767756 -0.421444144259
2.160640000000 0.908430386261 -0.386073066668 -0.024372123589 -0.106573846835 -0.019132681008 -0.103495442860 0.900710723939 -0.421373699940
2.161973111000 0.906998657670 -0.384677989143 -0.024386694204 -0.106559013626 -0.019628428754 -0.103107541694 0.898822634474 -0.420036280302
2.163306222000 0.907850847883 -0.386575122687 -0.024404213766 -0.106595168098 -0.019786989128 -0.103237231038 0.898267474496 -0.422850900232
2.164639333000 0.909119075531 -0.385840705002 -0.024573285326 -0.106586416371 -0.019660807360 -0.103068973052 0.899373773021 -0.422403200468
2.165972444000 0.907734314467 -0.385743112116 -0.024383747274 -0.106712888374 -0.020165280813 -0.103381570349 0.898179079693 -0.424079141664
2.167305555000 0.906136939398 -0.385826212693 -0.024356613755 -0.106564170951 -0.020013791476 -0.103363154480 0.898109390782 -0.423967104095
2.168638666000 0.907612907735 -0.387463287754 -0.024972262632 -0.106381653528 -0.020026205933 -0.103481859946 0.899325309219 -0.423502164383
2.169971777000 0.907452474756 -0.386142167320 -0.024897705088 -0.106521608768 -0.020269233074 -0.103413241407 0.899143172000 -0.423701887746
2.171304888000 0.907161057861 -0.388242373883 -0.025117989393 -0.106391587675 -0.020432081135 -0.103501088461 0.898487090337 -0.424697623350
2.172638000000 0.906265160017 -0.388270960256 -0.025118312439 -0.106418364980 -0.020440987531 -0.103216072416 0.899005370169 -0.425213774473
2.173971111000 0.907241178876 -0.388047251317 -0.025400611644 -0.106273515432 -0.020751199589 -0.103560033666 0.898901114243 -0.426327384954
2.175304222000 0.907577815905 -0.387841909585 -0.025404962338 -0.106225553111 -0.020787285733 -0.103390982879 0.899418482222 -0.426162833561
2.176637333000 0.906666180674 -0.388182375325 -0.025698379136 -0.106050620699 -0.021179930951 -0.103429916923 0.898553098326 -0.426830582720
2.177970444000 0.906720324923 -0.389012873877 -0.025452102752 -0.106548508457 -0.020960147697 -0.103234433053 0.899629552578 -0.425891860513
2.179303555000 0.906584533747 -0.388198108852 -0.025770069356 -0.105987352940 -0.021321263453 -0.103337348729 0.898930761488 -0.427514078943
2.180636666000 0.906804727525 -0.389056909866 -0.026107763211 -0.105997068687 -0.021446133361 -0.103066288318 0.898444499282 -0.427235886784
2.181969777000 0.905867013586 -0.389100726402 -0.026148732043 -0.105736726037 -0.021854968292 -0.103277786511 0.898135432148 -0.428593842635
2.183302888000 0.905468002028 -0.389496051271 -0.026479285063 -0.105915071347 -0.021694927990 -0.103099131148 0.899226726099 -0.427883643928
2.184636000000 0.906062944311 -0.391112856072 -0.026572739447 -0.105907718978 -0.021668002017 -0.103153244757 0.899941358096 -0.428679822302
2.185969111000 0.905873802090 -0.390490982106 -0.026434942046 -0.105683454184 -0.021934665643 -0.103277084882 0.899411878150 -0.430879366627
2.187302222000 0.905767120153 -0.390190150703 -0.026580824221 -0.105686885027 -0.022058597093 -0.102851638195 0.898353831828 -0.428742615371
2.188635333000 0.905065479168 -0.390377707261 -0.026794691408 -0.105259241652 -0.022327897518 -0.102859431359 0.898645904922 -0.430759214037
2.189968444000 0.905696105390 -0.391107257342 -0.026897185380 -0.105242014091 -0.022206403652 -0.102738152726 0.899094711817 -0.429734948609
2.191301555000 0.905939701984 -0.390570763165 -0.027161268478 -0.105200028642 -0.022624947435 -0.102627266949 0.899042101024 -0.431143711239
2.192634666000 0.904979844487 -0.391580418459 -0.027327238035 -0.104931345807 -0.022705598974 -0.102540134546 0.898832379218 -0.430579062017
2.193967777000 0.905187178644 -0.392365091846 -0.027565883570 -0.104971212792 -0.022942158288 -0.102375874099 0.898612461154 -0.432030702692
2.195300888000 0.904785576149 -0.391676761810 -0.027726085880 -0.104640713261 -0.022993404957 -0.102309950446 0.899243630418 -0.432039652108
2.196634000000 0.905114984921 -0.392204157578 -0.027900803880 -0.104761087761 -0.023080554899 -0.102199942036 0.899473509068 -0.432014000779
2.197967111000 0.904315931232 -0.392923050158 -0.027944494947 -0.104282678053 -0.023251200347 -0.102161996428 0.899664930602 -0.433476294523
2.199300222000 0.903861958423 -0.392614078253 -0.027923797669 -0.104254474687 -0.023338102760 -0.101802149844 0.899172513142 -0.434163678556
2.200633333000 0.904510287674 -0.392704453732 -0.028411223387 -0.104223014459 -0.023583702687 -0.101837618575 0.899747118128 -0.433649968483
2.201966444000 0.904069279670 -0.392798661261 -0.028522070960 -0.104073469328 -0.023834568531 -0.101525511815 0.899233427300 -0.433964962849
2.203299555000 0.903707919608 -0.393451652261 -0.028616385607 -0.103808006316 -0.023945562957 -0.101373812336 0.899398933801 -0.434529287791
2.204632666000 0.903095374824 -0.394321193787 -0.029017989219 -0.103482239920 -0.023947697499 -0.101288370419 0.900471240350 -0.434425343165
2.205965777000 0.904718113602 -0.393712729349 -0.029009069335 -0.103294262064 -0.024254493693 -0.101104619064 0.899418368961 -0.435110986579
2.207298888000 0.903267989057 -0.394789167622 -0.029114495976 -0.103338173085 -0.024268212748 -0.100982136313 0.899525027639 -0.435612140288
2.208632000000 0.903021362095 -0.395518952314 -0.029245220153 -0.103105486226 -0.024535341697 -0.100750745789 0.898831565930 -0.436812096816
2.209965111000 0.901762795565 -0.396514258407 -0.029468519879 -0.102879343938 -0.024578956128 -0.100556972085 0.899760500980 -0.436085745250
2.211298222000 0.903039346393 -0.396966857583 -0.029476951980 -0.102639248596 -0.024690329648 -0.100190703168 0.899047525581 -0.435301181313
2.212631333000 0.902127998881 -0.396424405208 -0.029789583069 -0.102337884128 -0.024903022659 -0.100256800053 0.900358200036 -0.437258352389
2.213964444000 0.902226119624 -0.398213735652 -0.029869177619 -0.102353400602 -0.024889586954 -0.099998646014 0.899171606439 -0.434538709329
2.215297555000 0.901624783970 -0.397514929712 -0.029998836788 -0.102071310578 -0.024851855463 -0.099817175673 0.899791181167 -0.436303843982
2.216630666000 0.902025708015 -0.397753545927 -0.030258041680 -0.101740839376 -0.025037540905 -0.099620993598 0.898683692526 -0.438437750343
2.217963777000 0.901385800549 -0.398555772129 -0.030191674562 -0.101719255808 -0.025368915961 -0.099418702299 0.899031682541 -0.439328003921
2.219296888000 0.901969289351 -0.399243079840 -0.030600413622 -0.101509248305 -0.025411458243 -0.099520870921 0.901821373371 -0.438532340121
2.220630000000 0.900578053305 -0.398195562518 -0.030599109635 -0.101219583073 -0.025479449698 -0.099315545135 0.899158702787 -0.439204540169
2.221963111000 0.901023287263 -0.399965843337 -0.030582153695 -0.101190237231 -0.025559991064 -0.098897970654 0.898763451418 -0.438660441254
2.223296222000 0.898324519937 -0.400236118020 -0.030657561726 -0.100718379951 -0.025522874661 -0.098774761083 0.900439072989 -0.440099893312
2.224629333000 0.899412401932 -0.400867338315 -0.031024850277 -0.100746479057 -0.025431140380 -0.098399181590 0.898521402056 -0.439370106847
2.225962444000 0.900709471308 -0.398570336901 -0.030819770344 -0.100625108273 -0.025485129827 -0.098499356784 0.898882523299 -0.439456370582
2.227295555000 0.899152962916 -0.403682112819 -0.031249062583 -0.100234645181 -0.025604649847 -0.098062968015 0.899257899908 -0.437938288235
2.228628666000 0.898724479526 -0.400036896769 -0.031013970207 -0.100262931605 -0.025706701897 -0.097919817818 0.899425543307 -0.438912315149
2.229961777000 0.900599612703 -0.402768217200 -0.031433146513 -0.100126027479 -0.025997715307 -0.097538142418 0.898708447621 -0.441491386471
2.231294888000 0.900036707351 -0.402143578973 -0.031215680969 -0.099800054710 -0.025788906755 -0.097492352211 0.898690451117 -0.441946744676
2.232628000000 0.899636692458 -0.402897034433 -0.031314959008 -0.099581476851 -0.025778907815 -0.097262380277 0.898985442162 -0.440331793395
2.233961111000 0.897933247571 -0.403679091308 -0.031335917223 -0.099465778826 -0.025695748021 -0.096978530023 0.897603112551 -0.439616212684
2.235294222000 0.896993186580 -0.404417237674 -0.031388595362 -0.099208005848 -0.025943168623 -0.096686305591 0.898263355100 -0.440982349126
2.236627333000 0.898243347521 -0.405137011644 -0.031507485026 -0.098838839981 -0.026018421080 -0.096340174925 0.897887820910 -0.443565481335
2.237960444000 0.897731778156 -0.404198482991 -0.031407135956 -0.098921584429 -0.025918722589 -0.096325442497 0.897445890438 -0.440500366312
2.239293555000 0.896791482650 -0.404521102321 -0.031412758037 -0.098701456369 -0.025943797932 -0.096012326107 0.898315426096 -0.441305344313
2.240626666000 0.897249220154 -0.403735889815 -0.031504042575 -0.098584767092 -0.025919164693 -0.095630014779 0.897485368753 -0.441817162831
2.241959777000 0.895881678955 -0.407769265132 -0.031652333399 -0.098071115050 -0.025990552963 -0.095279873644 0.896233978120 -0.443706703710
2.243292888000 0.897062316370 -0.404293035020 -0.031551159406 -0.098116100650 -0.026084561873 -0.095426938222 0.896441122426 -0.443194496291
2.244626000000 0.897000322140 -0.405558424795 -0.031682430324 -0.097867209169 -0.026016802811 -0.095034189463 0.897453377373 -0.442005052193
2.245959111000 0.894710746683 -0.404037333188 -0.031308791663 -0.097778304018 -0.025939050715 -0.094963806741 0.897517416604 -0.442531901989
2.247292222000 0.894725180782 -0.406072375336 -0.031531549151 -0.097459718115 -0.025924754081 -0.094533283801 0.895980743024 -0.443422496092
2.248625333000 0.896691632082 -0.407241917479 -0.031563569684 -0.097297148268 -0.026078491870 -0.094424758673 0.895607879459 -0.443695912173
2.249958444000 0.895851226045 -0.408878423945 -0.031666812068 -0.096899369624 -0.026238398635 -0.093829715342 0.894550389548 -0.445305743048
2.251291555000 0.892636817862 -0.408504319776 -0.031282220575 -0.096588853534 -0.025866531284 -0.093813774800 0.894742829721 -0.444027749568
2.252624666000 0.894876461229 -0.410864894031 -0.031688516867 -0.096459110290 -0.026055683076 -0.093390377609 0.895049800118 -0.446093345752
2.253957777000 0.893601817185 -0.409372752959 -0.031411712270 -0.096431826107 -0.025924636167 -0.093203714869 0.894396905786 -0.445669497658
2.255290888000 0.893712669850 -0.410042937355 -0.031363537045 -0.096172079697 -0.026334371070 -0.093093793076 0.893814877822 -0.445334083007
2.256624000000 0.893281100907 -0.411945072857 -0.031516091340 -0.095913674159 -0.025954696681 -0.092650838684 0.894138454694 -0.445587834453
2.257957111000 0.893188643406 -0.410985502282 -0.031336278897 -0.095671770768 -0.026041102711 -0.092732652073 0.893468655682 -0.446378867825
2.259290222000 0.894371516706 -0.411112266401 -0.031497612041 -0.095549486716 -0.026101476287 -0.092304510340 0.893407192157 -0.445905815775
2.260623333000 0.892852875709 -0.412636943548 -0.031432482192 -0.095283778549 -0.026160494664 -0.092012711421 0.892575332539 -0.447418993740
2.261956444000 0.892325655735 -0.412778237850 -0.031179126081 -0.094946347569 -0.026168697421 -0.091600462154 0.891645306032 -0.446931226306
2.263289555000 0.890694868064 -0.411618146866 -0.031208042517 -0.094775705519 -0.025932365475 -0.091108306785 0.892156388890 -0.447168732546
2.264622666000 0.892927728743 -0.412015306555 -0.031095269437 -0.094722560353 -0.026017705995 -0.091402301662 0.891208191409 -0.446664162398
2.265955777000 0.888091079996 -0.413558224141 -0.031190859015 -0.094181214183 -0.025879048450 -0.090933449127 0.892234765641 -0.448140692399
2.267288888000 0.891600202418 -0.412795042829 -0.030841901906 -0.094463525729 -0.025894995794 -0.090848413541 0.891864759594 -0.447833916056
2.268622000000 0.891077311229 -0.415164574222 -0.031148645893 -0.094173724622 -0.025788319335 -0.090294623263 0.891458088285 -0.448171327962
2.269955111000 0.889010484965 -0.415159316223 -0.030725655049 -0.093797509830 -0.025883994740 -0.090207034865 0.889818310083 -0.449984797609
2.271288222000 0.891753044625 -0.416447824659 -0.030930897854 -0.093779260311 -0.025983178047 -0.089844493792 0.890091957897 -0.449206019981
2.272621333000 0.890194833635 -0.414291595878 -0.030674843323 -0.093441125766 -0.025897926982 -0.089572578826 0.888991289016 -0.449848007462
2.273954444000 0.891507383505 -0.416423589679 -0.030544141366 -0.093370021659 -0.025973838528 -0.089406384424 0.888899215859 -0.449951133101
2.275287555000 0.889852482850 -0.418268241471 -0.030738757906 -0.093003157915 -0.025612124871 -0.089223652479 0.888880620658 -0.450235844656
2.276620666000 0.890237608058 -0.417396314230 -0.030550184304 -0.092741598811 -0.025604365572 -0.088903300508 0.889077557107 -0.450507951913
2.277953777000 0.890296803847 -0.419003958070 -0.030692166079 -0.092688551648 -0.025574414516 -0.088559038695 0.888157596182 -0.451313426141
2.279286888000 0.889886792150 -0.419867943110 -0.030449282489 -0.092591482288 -0.025619304246 -0.088280358043 0.887878893237 -0.451247565353
2.280620000000 0.889909205529 -0.420131161297 -0.030342659948 -0.092432774468 -0.025449204404 -0.088156443110 0.887877153900 -0.452146265523
2.281953111000 0.887693882089 -0.419957964644 -0.030340162028 -0.091939486865 -0.025307799753 -0.087846977337 0.887027714656 -0.451869296405
2.283286222000 0.890379369553 -0.419119037218 -0.030219144194 -0.092140653615 -0.025199624692 -0.087660200664 0.887017365599 -0.452091896414
2.284619333000 0.889393557467 -0.420128037699 -0.030181117141 -0.091731901600 -0.025272752044 -0.087447202976 0.886831828009 -0.452510713060
2.285952444000 0.889235560855 -0.422100720142 -0.030176120794 -0.091523134298 -0.025110593062 -0.087092898828 0.886371427950 -0.452281338227
2.287285555000 0.889002967462 -0.421026127449 -0.029993967377 -0.091285660970 -0.025134742579 -0.087008758154 0.885614275438 -0.453274487749
2.288618666000 0.889426491050 -0.422450636171 -0.029868680460 -0.091304718226 -0.024998408594 -0.086618377213 0.886080977094 -0.453366306985
2.289951777000 0.888865302119 -0.421647288150 -0.029611251256 -0.091100272767 -0.024846771944 -0.086523210490 0.885848278610 -0.453544462492
2.291284888000 0.891139805782 -0.422323881462 -0.029402227028 -0.091212963682 -0.025152034853 -0.086135311144 0.883973322251 -0.455252929282
2.292618000000 0.888154033393 -0.423660485733 -0.029752275509 -0.090801745709 -0.024852928900 -0.085777237620 0.883749510811 -0.455076447028
2.293951111000 0.888879492745 -0.424141568546 -0.029692107508 -0.090932121680 -0.024910804183 -0.085880030906 0.883555668338 -0.456585026245
2.295284222000 0.886785056973 -0.424768347474 -0.029604012867 -0.090083424503 -0.024724021402 -0.085383678923 0.882410842394 -0.456240556819
2.296617333000 0.888564452223 -0.424260850140 -0.029219112181 -0.090254376929 -0.024747356741 -0.085452695366 0.883010504408 -0.456007719100
2.297950444000 0.887265555745 -0.425937191939 -0.029179398946 -0.089906761138 -0.024555772103 -0.085022526892 0.882501330692 -0.456825709756
2.299283555000 0.886922580034 -0.424995581515 -0.028885478496 -0.089867552274 -0.024360092765 -0.084831426046 0.883391667769 -0.456952716534
2.300616666000 0.887562456727 -0.427066880231 -0.029132256504 -0.090036211043 -0.024381594295 -0.084528181776 0.882484184716 -0.458125748817
2.301949777000 0.888001166201 -0.426645515615 -0.028917776792 -0.089513507328 -0.024367002338 -0.084560605334 0.882891509749 -0.457845689813
2.303282888000 0.886316543477 -0.427543091658 -0.028731041496 -0.089303835898 -0.024099298434 -0.084130599395 0.881631974382 -0.457618124525
2.304616000000 0.887315390388 -0.428759735928 -0.028789614580 -0.089161356630 -0.024082960397 -0.083999102912 0.882048449189 -0.458616416428
2.305949111000 0.887213808453 -0.427227360273 -0.028445246641 -0.089251751903 -0.024034919096 -0.083833716792 0.882421060997 -0.459530267223
2.307282222000 0.886629557651 -0.428231396376 -0.028611195175 -0.088766047877 -0.023812928857 -0.083646343292 0.881607208011 -0.459372447323
2.308615333000 0.886724963771 -0.429901927869 -0.028442797622 -0.088776042178 -0.023851788286 -0.083384307111 0.881971923367 -0.460121175040
2.309948444000 0.886527549792 -0.429985656637 -0.028113839760 -0.088844786846 -0.023612437551 -0.083077885034 0.879738218276 -0.458543116681
2.311281555000 0.885766754515 -0.429907032947 -0.027863748723 -0.088589102468 -0.023422809363 -0.082872629853 0.880219865595 -0.458906657885
2.312614666000 0.886158447616 -0.431343069320 -0.028179837257 -0.088369035399 -0.023448445037 -0.082767402858 0.879491030262 -0.460955599708
2.313947777000 0.885639390112 -0.431811614701 -0.027922678508 -0.088118129332 -0.023330471742 -0.082510460058 0.879420352128 -0.460986649470
2.315280888000 0.886029919409 -0.431537039807 -0.027600855985 -0.088138705985 -0.023181320211 -0.082344465408 0.879530979474 -0.461105115813
2.316614000000 0.885633760004 -0.432672169094 -0.027647299193 -0.087823042874 -0.022966399011 -0.082157085898 0.879034404868 -0.461442783616
2.317947111000 0.885944344590 -0.432999010879 -0.027457448519 -0.087813477930 -0.022930939542 -0.081858838195 0.878647310509 -0.462675137229
2.319280222000 0.885579506124 -0.433704721693 -0.027536143408 -0.087590010983 -0.022756721512 -0.081719800185 0.879418955162 -0.461678123902
2.320613333000 0.885031230418 -0.433714939623 -0.027276745409 -0.087325526173 -0.022750476830 -0.081306246709 0.878104295439 -0.462997104132
2.321946444000 0.884996780875 -0.434920549701 -0.027254496836 -0.087405053769 -0.022560461919 -0.081171984014 0.877787791300 -0.462860837440
2.323279555000 0.885049105058 -0.435429947993 -0.027051251372 -0.087118677417 -0.022365751092 -0.080906926948 0.877582266050 -0.464455503781
2.324612666000 0.883817783143 -0.435910151894 -0.027160350951 -0.087060479428 -0.022500637781 -0.080894234865 0.880162089587 -0.465221027849
2.325945777000 0.883747573536 -0.436656221296 -0.026854291223 -0.086848522656 -0.021877646055 -0.080532317738 0.876423265729 -0.462242563429
2.327278888000 0.884011386091 -0.436228661416 -0.026619986655 -0.086327405335 -0.022088421125 -0.080524937234 0.876615089673 -0.465759369108
2.328612000000 0.884160916162 -0.437050956214 -0.026686008533 -0.086692995038 -0.021915882568 -0.080571293992 0.877988803106 -0.464648301839
2.329945111000 0.883557862095 -0.438289598007 -0.026369083023 -0.086136320447 -0.021674293445 -0.080081234321 0.876181159772 -0.466412445846
2.331278222000 0.883479155554 -0.438457717389 -0.026262060615 -0.086261039227 -0.021289344151 -0.079934959610 0.877936305996 -0.464014681687
2.332611333000 0.884247479048 -0.439052696696 -0.026197324143 -0.086015643884 -0.021177018174 -0.079886886123 0.876608233926 -0.465323110154
2.333944444000 0.882759908367 -0.440335912892 -0.026172853419 -0.085693441083 -0.021495130797 -0.079274596175 0.875777238754 -0.469096148940
2.335277555000 0.884050839151 -0.439494076268 -0.025792346478 -0.085814349388 -0.021228662666 -0.079321146926 0.876731634409 -0.467255002328
2.336610666000 0.882728227455 -0.440443501852 -0.025865514347 -0.085745078340 -0.021127683960 -0.079332564481 0.876001128715 -0.466761979108
2.337943777000 0.883765656516 -0.440274709922 -0.025521275035 -0.085344487333 -0.020917483309 -0.078976739859 0.875113605383 -0.468892398643
2.339276888000 0.883632358349 -0.440667996194 -0.025336238523 -0.085286781635 -0.020768731246 -0.079282354570 0.874994247796 -0.468552190331
2.340610000000 0.883335185525 -0.441625294034 -0.025039547128 -0.084964597830 -0.020603836155 -0.078757155918 0.873919328554 -0.469398895153
2.341943111000 0.883537744443 -0.442434629528 -0.025159052972 -0.084958580588 -0.020315777391 -0.078910994495 0.874542135626 -0.469438442301
2.343276222000 0.883479545064 -0.441883819739 -0.024936632939 -0.085152320818 -0.020247090905 -0.078260933307 0.872982562232 -0.469611646961
2.344609333000 0.883545195286 -0.442691638938 -0.024824738473 -0.084753943647 -0.020732323651 -0.078136118754 0.874213161190 -0.474304871219
2.345942444000 0.882311629565 -0.444332559139 -0.024514653787 -0.084791547766 -0.020151680508 -0.077929491899 0.873136869332 -0.471006018310
2.347275555000 0.884430406866 -0.443771510604 -0.024453159094 -0.084731651161 -0.020181999844 -0.077918115291 0.875227631255 -0.472542067671
2.348608666000 0.883991542753 -0.444751674586 -0.024287924265 -0.084451220150 -0.020049916195 -0.077590573403 0.874133861125 -0.473201658837
2.349941777000 0.884074251265 -0.445058028160 -0.024027054650 -0.084673802284 -0.019737813302 -0.077559186804 0.871843551661 -0.469536649540
2.351274888000 0.883205209724 -0.446548209412 -0.024165359892 -0.084400906004 -0.019709449144 -0.077709568135 0.875019015957 -0.472514432889
2.352608000000 0.882410479695 -0.447963903014 -0.023955997673 -0.084319206093 -0.019238774985 -0.077393584061 0.875973515889 -0.472919609747
2.353941111000 0.884544575491 -0.445604028442 -0.023437092631 -0.084503435608 -0.019126174372 -0.077573109002 0.872017833731 -0.471963912615
2.355274222000 0.883773786420 -0.446896548832 -0.023493756781 -0.084178008574 -0.018574922146 -0.077605783519 0.873559306682 -0.473116992417
2.356607333000 0.884548951371 -0.447693376487 -0.023178600230 -0.084220725812 -0.018834018848 -0.077421971552 0.873054302089 -0.472869198533
2.357940444000 0.883805056933 -0.448371586469 -0.023113366715 -0.084057787800 -0.018102831446 -0.077082842407 0.873558709868 -0.473327786194
2.359273555000 0.883336790104 -0.448848265955 -0.022890368786 -0.083985012154 -0.018025804956 -0.077433667344 0.872871729895 -0.475836937043
2.360606666000 0.883698144985 -0.447849120071 -0.022548762907 -0.084017084596 -0.017857437040 -0.077409944972 0.871395513190 -0.474211807122
2.361939777000 0.884225086857 -0.448781016451 -0.022405997185 -0.084032666952 -0.017771838574 -0.076900978972 0.873020842210 -0.474938515938
2.363272888000 0.883907187375 -0.448484215324 -0.022002502436 -0.083937794289 -0.017704512299 -0.076972045606 0.871885225629 -0.474776711738
2.364606000000 0.883037792434 -0.449151042904 -0.021681291592 -0.083946623311 -0.017363619921 -0.077095269955 0.870985546355 -0.475369231909
2.365939111000 0.884402266521 -0.450511961354 -0.021679674116 -0.083671486735 -0.017309448607 -0.076818861664 0.872174400299 -0.478411029505
2.367272222000 0.883806273385 -0.449669517526 -0.021303147023 -0.083762587514 -0.017083875294 -0.076423349439 0.870536990055 -0.476346597751
2.368605333000 0.883955441827 -0.450437920139 -0.021333184776 -0.083762663118 -0.017206542694 -0.076602772692 0.873388598131 -0.476856208761
2.369938444000 0.883030766692 -0.452323289361 -0.021173765841 -0.083478953095 -0.016642551797 -0.076928478832 0.870974983190 -0.478487716876
2.371271555000 0.883647510518 -0.452023574198 -0.020663072142 -0.083428634201 -0.016049885363 -0.076181729407 0.870014217934 -0.478553413920
2.372604666000 0.884048971709 -0.451778150863 -0.020492317239 -0.083629793777 -0.016082490087 -0.076252585224 0.870979783627 -0.479534446368
2.373937777000 0.883121062882 -0.453161709449 -0.020382213977 -0.083259226238 -0.015980907270 -0.076492241464 0.869033362201 -0.480308332903
2.375270888000 0.883782855772 -0.451592500865 -0.020150286805 -0.083499984717 -0.015660222484 -0.076744985419 0.869053921084 -0.479324577316
2.376604000000 0.883724134026 -0.451664651763 -0.019749736104 -0.083400070586 -0.015083093740 -0.076508364259 0.869186334419 -0.479263455828
2.377937111000 0.883082464541 -0.451274563677 -0.019602702595 -0.083423580305 -0.014880299407 -0.076827585279 0.869269191071 -0.480033745164
2.379270222000 0.883907710899 -0.451675627830 -0.019438065037 -0.083266293617 -0.015172947489 -0.076643734429 0.868641041300 -0.482741338052
2.380603333000 0.882936154203 -0.451792699427 -0.019220394133 -0.083442406914 -0.014485617725 -0.076706084432 0.870672500623 -0.481131516753
2.381936444000 0.879741613388 -0.455156923952 -0.019211872472 -0.082691035401 -0.013642726498 -0.076785837436 0.871322843084 -0.482035759049
2.383269555000 0.881826339928 -0.453127769432 -0.018508776919 -0.083068666993 -0.014327115779 -0.076120240532 0.868099770570 -0.483302281675
2.384602666000 0.881895539718 -0.455206736851 -0.018569765820 -0.082996914857 -0.013985102561 -0.076250432528 0.868523641264 -0.483579138897
2.385935777000 0.882325628654 -0.455454161332 -0.018212013809 -0.082841290579 -0.013603912131 -0.076496974917 0.868329797823 -0.484580616801
2.387268888000 0.882416046920 -0.454303173541 -0.018394653298 -0.083107715184 -0.013702470678 -0.076670631913 0.869099052325 -0.485043057142
2.388602000000 0.880082936878 -0.454215699471 -0.017546688252 -0.082737488332 -0.013006610879 -0.077375764867 0.867503449657 -0.487604127224
2.389935111000 0.882311047254 -0.456621417511 -0.017874884136 -0.083298967130 -0.013042124575 -0.076536466305 0.867877045709 -0.484711229622
2.391268222000 0.880864032595 -0.454745185490 -0.017645191696 -0.083235210680 -0.012921696018 -0.076942130353 0.867532659036 -0.486206744247
2.392601333000 0.878685062892 -0.453682345059 -0.017471569505 -0.082792901676 -0.012366038021 -0.077136150620 0.868565122311 -0.487326145112
2.393934444000 0.880142016595 -0.456480764035 -0.017661447991 -0.083092807219 -0.012084464597 -0.076639981484 0.867834820974 -0.486430629960
2.395267555000 0.880963851419 -0.455498697399 -0.017146880951 -0.083275351327 -0.012452726996 -0.077205568957 0.867155241416 -0.488070921787
2.396600666000 0.880323406123 -0.457131440027 -0.017173212614 -0.082908918635 -0.011959788495 -0.076828120639 0.868274004927 -0.488102973872
2.397933777000 0.880259600047 -0.456550610738 -0.017030998156 -0.083303712833 -0.011904244936 -0.077267043939 0.867029900142 -0.487999588966
2.399266888000 0.879303166841 -0.458812415745 -0.016896940025 -0.083294191591 -0.011483736211 -0.077022846921 0.867415604651 -0.487804721373
2.400600000000 0.879010584222 -0.458198996838 -0.016690541567 -0.083346914775 -0.011159704035 -0.077207032694 0.867918407876 -0.488610305033
2.401933111000 0.881019358945 -0.458000963310 -0.016522061200 -0.083499094524 -0.011116898462 -0.077257929439 0.867589595485 -0.488652172834
2.403266222000 0.879861978767 -0.458644243371 -0.016243783016 -0.083631487563 -0.010828132633 -0.077695397369 0.866782058378 -0.489483035421
2.404599333000 0.879764177898 -0.460822602977 -0.015935074389 -0.083455832363 -0.010706053084 -0.077410729419 0.866759966150 -0.490490622596
2.405932444000 0.880063833678 -0.459458632458 -0.016105951135 -0.083888631396 -0.010504365558 -0.077890172928 0.867184237149 -0.490245421522
2.407265555000 0.878720604231 -0.460941723594 -0.016289511707 -0.083759968863 -0.010130236578 -0.077703227948 0.867326501771 -0.490226816698
2.408598666000 0.878979988210 -0.460832132435 -0.016069325705 -0.083646787715 -0.010292616360 -0.078019975251 0.865914752014 -0.491782957442
2.409931777000 0.878587053675 -0.461389092582 -0.015786428145 -0.083795019662 -0.010045164014 -0.078324962682 0.867139151547 -0.493137647410
2.411264888000 0.880057991981 -0.461150007979 -0.015900574133 -0.083949754035 -0.009888272516 -0.078369859241 0.866669866370 -0.492644761932
2.412598000000 0.878844738253 -0.462926188277 -0.015673424204 -0.084063775524 -0.009466395654 -0.078411627507 0.867429541152 -0.493755243937
2.413931111000 0.876714477172 -0.461691083255 -0.015539564500 -0.083988078096 -0.009483116589 -0.079040758478 0.867046327573 -0.494307751852
2.415264222000 0.879814317216 -0.463459593500 -0.015430295968 -0.084426446365 -0.009307014048 -0.078900102189 0.867936883417 -0.494204311904
2.416597333000 0.877796856144 -0.462678613840 -0.015780458607 -0.084203433728 -0.009487644739 -0.079184563291 0.865665038581 -0.494043230318
2.417930444000 0.879871852143 -0.462956463542 -0.015610106225 -0.085030608910 -0.009435359642 -0.079171075275 0.865801154428 -0.495166119038
2.419263555000 0.879178418324 -0.463465249399 -0.015400521479 -0.085081665954 -0.009101512559 -0.079575692711 0.867599594482 -0.495474125167
2.420596666000 0.878952697469 -0.464423307490 -0.015468790141 -0.085049679091 -0.009188087384 -0.079544758852 0.866360625542 -0.495359340637
2.421929777000 0.877475578570 -0.464908936532 -0.015826646228 -0.085064237436 -0.008956126177 -0.079932352480 0.866469154534 -0.496134257207
2.423262888000 0.878155124728 -0.463614090004 -0.015796470926 -0.085086421833 -0.008972462539 -0.080164355962 0.866126525070 -0.496120073793
2.424596000000 0.878496152950 -0.464772055906 -0.015407977700 -0.085192537629 -0.008981284264 -0.080286100110 0.866593915936 -0.497612023651
2.425929111000 0.879290491518 -0.465619546242 -0.015750171857 -0.085756428948 -0.008935907159 -0.080466896977 0.866513175449 -0.497243319382
2.427262222000 0.880114098706 -0.465734506306 -0.015670186730 -0.085187277368 -0.008853418441 -0.080405520808 0.865688771073 -0.497711992549
2.428595333000 0.877858002764 -0.466099737725 -0.015753188893 -0.085551750474 -0.008891418967 -0.080839235308 0.866921434496 -0.499495778284
2.429928444000 0.878143365533 -0.466604405758 -0.016099449058 -0.085607398840 -0.008914375472 -0.081140722975 0.866915997708 -0.499530233731
2.431261555000 0.878732210437 -0.466560324954 -0.015748223890 -0.085730826025 -0.009058038740 -0.081247091120 0.866539895951 -0.500326468386
2.432594666000 0.876965162043 -0.468430413829 -0.015654262488 -0.085942831287 -0.008909345224 -0.081566249659 0.866191755762 -0.499915645477
2.433927777000 0.878249292415 -0.468492227037 -0.016235537101 -0.085864188828 -0.008848460034 -0.081860893328 0.868298422512 -0.500424196533
2.435260888000 0.878360400388 -0.468769586068 -0.016208865966 -0.086171899746 -0.009074187656 -0.081809849051 0.866903903533 -0.500625324327
2.436594000000 0.878178411419 -0.469498956350 -0.016311565479 -0.086424172498 -0.009128128146 -0.082029778424 0.866538123759 -0.500870415992
2.437927111000 0.877176419667 -0.468640779831 -0.016759077939 -0.086354542179 -0.009198372397 -0.082252640043 0.866435993193 -0.502397043494
2.439260222000 0.878702319497 -0.469452431778 -0.016734542879 -0.086181567551 -0.009484474325 -0.082216014161 0.866789349848 -0.503624233805
2.440593333000 0.878475073394 -0.469938526384 -0.016749459114 -0.086298410651 -0.009392701235 -0.082447810288 0.865973281175 -0.504457397572
2.441926444000 0.880122977924 -0.469007407337 -0.016595672158 -0.086285733755 -0.009693822296 -0.082658044588 0.866818169367 -0.504175716661
2.443259555000 0.878640768962 -0.470482516785 -0.016853959353 -0.086704209990 -0.009850476788 -0.082927864169 0.867898582580 -0.503174351392
2.444592666000 0.877864577264 -0.470394769215 -0.017252201064 -0.086240894151 -0.009785276396 -0.083149138568 0.868338039850 -0.504484524854
2.445925777000 0.876627654125 -0.470492102562 -0.017413397535 -0.086375751001 -0.009937643872 -0.083155323736 0.867151708535 -0.505898677866
2.447258888000 0.877697372962 -0.471016136795 -0.017679759947 -0.086227518147 -0.010055454310 -0.083311842197 0.868389600315 -0.506111061400
2.448592000000 0.877856416343 -0.471399898925 -0.017490663043 -0.086579845499 -0.010291788860 -0.083275133116 0.867464016997 -0.507649990852
2.449925111000 0.877697751988 -0.473157910250 -0.017896255214 -0.086393731736 -0.010458023738 -0.083505562426 0.868881423584 -0.506543113785
2.451258222000 0.877739833262 -0.472383829735 -0.018246870251 -0.086294443504 -0.010485404985 -0.083440379410 0.867895028597 -0.507938941759
2.452591333000 0.877970849160 -0.472195039888 -0.018288193533 -0.086013442515 -0.010999239520 -0.083640082321 0.869205048351 -0.508449165717
2.453924444000 0.877191245672 -0.472328932488 -0.018458863637 -0.086405538111 -0.010832572631 -0.083594770184 0.866753487702 -0.507208313320
2.455257555000 0.876795232186 -0.472480501292 -0.018694092043 -0.086102456676 -0.011391120234 -0.083711309467 0.868248175509 -0.508650103763
2.456590666000 0.877359860097 -0.472913537032 -0.018845855728 -0.086158874257 -0.011726259206 -0.083832322561 0.867978808238 -0.508607425809
2.457923777000 0.876927557177 -0.473630083652 -0.019145634515 -0.086089829569 -0.011524879458 -0.083734146667 0.869158321742 -0.509610433491
2.459256888000 0.877178593515 -0.474367764940 -0.019094493214 -0.086110968217 -0.012018011741 -0.083809712394 0.868771065280 -0.510029978244
2.460590000000 0.877818156036 -0.473866818765 -0.019205924032 -0.086085484927 -0.012103289877 -0.083904100166 0.868840112468 -0.509482326043
2.461923111000 0.876395854312 -0.473980372957 -0.019364805916 -0.085692494235 -0.012409305271 -0.083773601387 0.868891786626 -0.510756034748
2.463256222000 0.876640973346 -0.474878308729 -0.019656967293 -0.085797217771 -0.012662484375 -0.083549609100 0.869303397615 -0.511417810646
2.464589333000 0.877331731046 -0.474430973866 -0.019688442153 -0.085444982721 -0.012874836396 -0.083741972376 0.869625612701 -0.512077623329
2.465922444000 0.875521748622 -0.475176376617 -0.020266709834 -0.085407623560 -0.012853041134 -0.083814608357 0.871173515181 -0.512640330022
2.467255555000 0.876280942756 -0.476075001884 -0.020323096179 -0.085607766959 -0.013042335276 -0.083430312674 0.870509809887 -0.512883288979
2.468588666000 0.875238059010 -0.475359830611 -0.020395753944 -0.085246488771 -0.013017356890 -0.083363598140 0.870018589642 -0.513002622183
2.469921777000 0.875068172624 -0.475951706927 -0.020444178260 -0.085214873272 -0.013442039286 -0.083618026470 0.869405495671 -0.513723323288
2.471254888000 0.875335850877 -0.475985799567 -0.020532027981 -0.084905003848 -0.013629047244 -0.083404425953 0.870489773295 -0.514250266931
2.472588000000 0.875649038272 -0.476072102120 -0.020923632660 -0.084765096123 -0.014134427037 -0.083205144315 0.870879922693 -0.515187202116
2.473921111000 0.875051482610 -0.478539249831 -0.021154413622 -0.084865448891 -0.013974848088 -0.083646769458 0.870710131055 -0.515100853981
2.475254222000 0.876238891339 -0.477244527822 -0.021088101543 -0.084838441476 -0.013922779513 -0.082803245233 0.871958423243 -0.513877586646
2.476587333000 0.875824820437 -0.477312834152 -0.021074405719 -0.084582770280 -0.014334431893 -0.082795459324 0.870400877922 -0.515588676891
2.477920444000 0.875404639394 -0.477560903609 -0.021409219132 -0.084352261782 -0.014334024812 -0.082535241072 0.871056782502 -0.516311850783
2.479253555000 0.874716060680 -0.478540821644 -0.021409830945 -0.084275342806 -0.014494107831 -0.082725900426 0.870528848453 -0.515274526017
2.480586666000 0.875245561236 -0.478186866266 -0.021659232083 -0.083907984530 -0.014960687724 -0.082508507459 0.871452651954 -0.517063459080
2.481919777000 0.875023136328 -0.479021466440 -0.021795492557 -0.083998063832 -0.014763553330 -0.082392911575 0.872060944485 -0.516837504015
2.483252888000 0.874764951543 -0.480527678792 -0.021840048095 -0.084029400852 -0.015054652396 -0.082006950762 0.869627119667 -0.517120070453
2.484586000000 0.874084288818 -0.480449919559 -0.022083196202 -0.083678299896 -0.014989320596 -0.082143179564 0.872527150639 -0.517687740953
2.485919111000 0.874048436809 -0.479847106526 -0.022113631488 -0.083378849726 -0.015526437224 -0.081903996769 0.870828125006 -0.518718701016
2.487252222000 0.873827121305 -0.480052387194 -0.022291124970 -0.083285592124 -0.015455953265 -0.081818535415 0.872485678137 -0.517744138640
2.488585333000 0.874530745683 -0.480164920469 -0.022409834164 -0.083039888928 -0.015949259459 -0.081669443389 0.872592326268 -0.518597449546
2.489918444000 0.873035640320 -0.481016893146 -0.022613598181 -0.082972011178 -0.015746391874 -0.081323889495 0.870191383068 -0.519159074000
2.491251555000 0.873455763429 -0.480900419585 -0.022497389627 -0.082769437134 -0.015927575496 -0.081486805713 0.872402883005 -0.519728534014
2.492584666000 0.874023360921 -0.480973010205 -0.022670812892 -0.082521027988 -0.016055102763 -0.080895222133 0.871786796163 -0.519341311593
2.493917777000 0.873116944119 -0.481908221050 -0.022847130808 -0.082408643641 -0.015958335677 -0.080814301509 0.872717014756 -0.519323851233
2.495250888000 0.872084172065 -0.482443369081 -0.023035926147 -0.082150568791 -0.016058742623 -0.080540997510 0.873601896696 -0.519193664519
2.496584000000 0.872854821125 -0.480859051674 -0.022967701034 -0.082100473381 -0.016368757584 -0.080490572003 0.873248456582 -0.521036765280
2.497917111000 0.870470556143 -0.482554010642 -0.023157414058 -0.081788621693 -0.016520474001 -0.080201779969 0.871319494240 -0.519540621184
2.499250222000 0.872136585730 -0.481497890997 -0.023157655367 -0.081647788958 -0.016568373179 -0.079938944314 0.872973064470 -0.520000698441
2.500583333000 0.871085831307 -0.481731123542 -0.023509225941 -0.081433970463 -0.016858954148 -0.079513935022 0.871101072750 -0.519248498056
2.501916444000 0.872119958863 -0.482888424867 -0.023346747300 -0.081284561088 -0.016706291309 -0.079597082713 0.872012015583 -0.521068169802
2.503249555000 0.871894269623 -0.483943465165 -0.023511163000 -0.081188709985 -0.016782332900 -0.079671788551 0.873054754724 -0.522174837110
2.504582666000 0.871340360740 -0.484693198851 -0.023592078029 -0.080864231024 -0.016892879637 -0.079078818249 0.871595515558 -0.521341750734
2.505915777000 0.871159074270 -0.484985370160 -0.023572036024 -0.080694920075 -0.017049760973 -0.079012888785 0.871490161942 -0.522803922492
2.507248888000 0.871238258619 -0.484493028721 -0.023844769181 -0.080478894030 -0.016944851826 -0.078598499503 0.872011182725 -0.521108326538
2.508582000000 0.870537530815 -0.484829010338 -0.023723160822 -0.080233328014 -0.016956824698 -0.078603792838 0.872298595755 -0.522347535121
2.509915111000 0.871654184667 -0.486331422169 -0.023863585735 -0.080133650549 -0.017256140041 -0.078411339704 0.871653423560 -0.523235332034
2.511248222000 0.869896270792 -0.485734115054 -0.023831337906 -0.079808354915 -0.017322398805 -0.078205264885 0.871873544654 -0.522871021033
2.512581333000 0.871098971432 -0.485937259342 -0.023754460605 -0.079697730665 -0.017310864871 -0.077897717291 0.872013390576 -0.523416822186
2.513914444000 0.869479043306 -0.486297855589 -0.023955705666 -0.079477939713 -0.017195746125 -0.077598909996 0.872094079530 -0.522092426496
2.515247555000 0.869695446255 -0.487963387535 -0.023948104275 -0.079356582557 -0.017403248312 -0.077269412000 0.871790684286 -0.523476100661
2.516580666000 0.867271945314 -0.490274965647 -0.023842597021 -0.079094897991 -0.017444801801 -0.077046069109 0.869886629924 -0.523748814227
2.517913777000 0.869967577599 -0.487936875141 -0.024171586501 -0.078895009061 -0.017591403551 -0.077023736739 0.871781127326 -0.524438197052
2.519246888000 0.868027695437 -0.488889743972 -0.024287017666 -0.078519245726 -0.017454584081 -0.076763685200 0.871100245028 -0.524176136036
2.520580000000 0.869495998318 -0.490051989675 -0.024439616108 -0.078852761803 -0.017531776018 -0.076353572462 0.870716121525 -0.524876820382
2.521913111000 0.868707729974 -0.488582524101 -0.024056833056 -0.078198581242 -0.017826959781 -0.076452608570 0.871097217727 -0.525347012086
2.523246222000 0.869192812143 -0.489406239171 -0.024054664391 -0.078136215573 -0.017759868390 -0.075892637620 0.869737283146 -0.523689978890
2.524579333000 0.866956854849 -0.489613276395 -0.024309227391 -0.077792443922 -0.017699806813 -0.075877792228 0.870714430828 -0.524351429842
2.525912444000 0.867388602513 -0.490134583562 -0.024052098954 -0.077683442081 -0.017907869488 -0.075566390111 0.871018873058 -0.525018872313
2.527245555000 0.869214150850 -0.489559773825 -0.024025300863 -0.077823750241 -0.017697083194 -0.075107047546 0.870402280318 -0.524554114091
2.528578666000 0.866786048208 -0.491903206399 -0.024339135047 -0.077278969295 -0.017665841469 -0.074881658821 0.869344653611 -0.524828710039
2.529911777000 0.867162705089 -0.490965827153 -0.024073202893 -0.077174664063 -0.017709634070 -0.074876095025 0.869120005662 -0.525532603196
2.531244888000 0.869525058438 -0.491273075760 -0.023936240653 -0.076919971090 -0.017939181360 -0.074385442394 0.869422700011 -0.526277834778
2.532578000000 0.866689398451 -0.492015972065 -0.024157917985 -0.076846528219 -0.017744674443 -0.074324977897 0.869437050468 -0.525721081443
2.533911111000 0.867193793840 -0.491552173172 -0.024046815647 -0.076565153816 -0.017813059606 -0.074145947702 0.870059946098 -0.526523522336
2.535244222000 0.865660086453 -0.494888003738 -0.024124749375 -0.076100905758 -0.017606792920 -0.073976672863 0.871399409533 -0.526452665670
2.536577333000 0.866426156787 -0.493646859283 -0.023941525271 -0.075944067874 -0.017637734502 -0.073601419811 0.869653900608 -0.526514809389
2.537910444000 0.866641790536 -0.493869489542 -0.023845907011 -0.075765976678 -0.017698277403 -0.073290960628 0.868747445331 -0.526854676857
2.539243555000 0.864620473749 -0.493674211806 -0.023786705256 -0.075629894733 -0.017591877236 -0.073051550477 0.867704207472 -0.526982195920
2.540576666000 0.865238083740 -0.495911689086 -0.023773114849 -0.075484563895 -0.017801143821 -0.072717546321 0.866859726220 -0.528494051780
2.541909777000 0.866164101302 -0.494512904200 -0.023878348566 -0.075154872667 -0.017679497459 -0.072816605805 0.868277978724 -0.527407376774
2.543242888000 0.862151476728 -0.494985832883 -0.023838632731 -0.075125065268 -0.017246682318 -0.072506524135 0.866740806551 -0.525643659173
2.544576000000 0.864294236919 -0.497300903992 -0.024005055834 -0.075155254703 -0.017269474468 -0.072281336934 0.867733369547 -0.525907970190
2.545909111000 0.862914744569 -0.495953926184 -0.023792392898 -0.074593146957 -0.017380124527 -0.071930270157 0.866928810026 -0.528983032143
2.547242222000 0.864804965256 -0.496515608529 -0.023611014954 -0.074466658153 -0.017382634570 -0.071568900038 0.866227967605 -0.529186951453
2.548575333000 0.863690411070 -0.498693876166 -0.023640638977 -0.074365171435 -0.017423648611 -0.071342755550 0.867030630599 -0.529136333595
2.549908444000 0.863431042136 -0.498325527237 -0.023464569863 -0.074288555011 -0.017041129496 -0.071085848538 0.865424297427 -0.528048618382
2.551241555000 0.863113363117 -0.498800815905 -0.023498191097 -0.073895217725 -0.017267154266 -0.070873940326 0.866448306594 -0.529422053716
2.552574666000 0.863781822157 -0.498353201037 -0.023505577390 -0.074047969403 -0.017135318290 -0.070688969669 0.866165516190 -0.528939145847
2.553907777000 0.861746447629 -0.500860505996 -0.023668275436 -0.073825631331 -0.016868610891 -0.070489452499 0.864719248919 -0.527478642022
2.555240888000 0.863169463355 -0.498995300946 -0.023179644697 -0.073490719395 -0.016996189460 -0.070238105536 0.865389297761 -0.529090962691
2.556574000000 0.863327463153 -0.499896775352 -0.023116491932 -0.073318261544 -0.016867243496 -0.069954108919 0.864559379747 -0.528943612675
2.557907111000 0.861148906379 -0.499666588143 -0.022843867197 -0.073327070980 -0.016671213542 -0.069731092630 0.864391106662 -0.529125621742
2.559240222000 0.860986685217 -0.499929040328 -0.022883737343 -0.072866783581 -0.016708949063 -0.069446364358 0.863268673207 -0.530362016653
2.560573333000 0.860820143641 -0.501987611465 -0.022935510997 -0.072696605797 -0.016717938025 -0.069161551408 0.863704938307 -0.531141330426
2.561906444000 0.861143321567 -0.502565460021 -0.022683135649 -0.072830070037 -0.016438238571 -0.068979031752 0.864226435595 -0.530017288784
2.563239555000 0.861707294737 -0.502201500392 -0.022620874894 -0.072530244774 -0.016352925445 -0.068673808369 0.862550878407 -0.529644938355
2.564572666000 0.860777072670 -0.502334795856 -0.022418645991 -0.072212439700 -0.016447359929 -0.068491533480 0.861440021440 -0.528957506042
2.565905777000 0.862278093182 -0.503243659769 -0.022404807816 -0.072160121491 -0.016286613113 -0.068321088110 0.862056959333 -0.530679771728
2.567238888000 0.859442065296 -0.504067793295 -0.022467108408 -0.071805332508 -0.016167185457 -0.068077400792 0.863895816487 -0.531172023119
2.568572000000 0.860026746203 -0.502783661399 -0.022194200399 -0.071328906239 -0.016007534669 -0.067748980457 0.862239036625 -0.531229285883
2.569905111000 0.860326403576 -0.503841917506 -0.022231320384 -0.071392564455 -0.015887476791 -0.067581928425 0.861761945147 -0.532903877296
2.571238222000 0.859777436553 -0.505278823910 -0.021998879499 -0.071124732525 -0.015626417320 -0.067038404056 0.859835859221 -0.532395719489
2.572571333000 0.860085321635 -0.505813855789 -0.021832505396 -0.071188425798 -0.015546644514 -0.067093128862 0.861080335044 -0.530779390931
2.573904444000 0.858614250827 -0.505407344127 -0.022262564986 -0.071103979233 -0.015307329876 -0.066872723023 0.860205759771 -0.530704983926
2.575237555000 0.859740821557 -0.506457757667 -0.021631898846 -0.070728966787 -0.015197789416 -0.066581027861 0.860033885577 -0.529971647256
2.576570666000 0.858822438307 -0.506576486441 -0.021581816838 -0.070392796558 -0.015228740793 -0.066212880484 0.859878023740 -0.532593009605
2.577903777000 0.858913054546 -0.507079132809 -0.021571544882 -0.070403203129 -0.014980123211 -0.066208320574 0.859697108683 -0.532456669038
2.579236888000 0.859665775858 -0.508282086857 -0.021230364345 -0.070244862375 -0.014770728815 -0.065752889813 0.858579380823 -0.532631185837
2.580570000000 0.858795718937 -0.508853546658 -0.021012001202 -0.070060326201 -0.014689969047 -0.065615071869 0.858419252111 -0.533219316997
2.581903111000 0.858450915163 -0.508287505960 -0.020845631606 -0.069694014549 -0.014356174450 -0.065472760823 0.858295355331 -0.533988974439
2.583236222000 0.859246280615 -0.509534254819 -0.020411957691 -0.069980555645 -0.014125200005 -0.065054544311 0.857100385320 -0.531854946210
2.584569333000 0.857822446465 -0.509951640291 -0.020461427876 -0.069398575450 -0.014048468702 -0.065087970073 0.857614065694 -0.534680773736
2.585902444000 0.857189305079 -0.509265714394 -0.020372888648 -0.069282292116 -0.013726887053 -0.064786719488 0.856678198712 -0.533735122003
2.587235555000 0.857960337078 -0.510623444581 -0.019796730871 -0.069072473229 -0.013518733304 -0.064334206964 0.857548347324 -0.534613028063
2.588568666000 0.856387773089 -0.511672544711 -0.019994843474 -0.069158628691 -0.013210283762 -0.064451613344 0.857547468362 -0.534502967687
2.589901777000 0.856793809045 -0.512959351393 -0.019570324757 -0.068976511223 -0.013124811279 -0.064229820439 0.855778506429 -0.535999013416
2.591234888000 0.857612931688 -0.512529443586 -0.019438388829 -0.068993271378 -0.012724548530 -0.064042770745 0.856652132708 -0.535284630585
2.592568000000 0.857180785219 -0.513385027975 -0.019057282283 -0.068728705409 -0.012521800612 -0.063916401122 0.856139448494 -0.535053389058
2.593901111000 0.857334016492 -0.514223173087 -0.018888730422 -0.068700663803 -0.012664573077 -0.063693587272 0.855379196338 -0.536689462005
2.595234222000 0.856063171997 -0.514545879669 -0.018883683667 -0.068507330260 -0.012347186446 -0.063330309314 0.854855978352 -0.535790234943
2.596567333000 0.856186505542 -0.514904161959 -0.018723405182 -0.068174934794 -0.012095631385 -0.063419886192 0.855766689592 -0.538013477073
2.597900444000 0.856024390920 -0.515522176635 -0.018349557308 -0.068244488298 -0.011888877648 -0.063581690731 0.853706955191 -0.538838737618
2.599233555000 0.856889662565 -0.516339816311 -0.018105193580 -0.068189063218 -0.011428051929 -0.062837513573 0.853435155233 -0.537793799175
2.600566666000 0.855473297208 -0.516948454494 -0.018157844189 -0.067950938004 -0.011672021248 -0.062983935191 0.854657045884 -0.539026303810
2.601899777000 0.856429313756 -0.516835661363 -0.017730697971 -0.067806331036 -0.011243745196 -0.062569460615 0.853840736512 -0.539354331105
2.603232888000 0.855943174278 -0.518788114318 -0.017579705503 -0.067946781337 -0.010718018113 -0.062432562193 0.853443845019 -0.539351260611
2.604566000000 0.856655259778 -0.517802576902 -0.017209895670 -0.067833804725 -0.010819071445 -0.062662449929 0.853338752520 -0.540045408885
2.605899111000 0.856338517374 -0.517622351975 -0.016988338304 -0.067518841508 -0.010528638302 -0.062590543352 0.852493018878 -0.540160432909
2.607232222000 0.853886104118 -0.519491394392 -0.017106577107 -0.067397024509 -0.010203615560 -0.062204693958 0.851469657402 -0.540174268001
2.608565333000 0.854864810990 -0.519076165981 -0.016706957503 -0.067335319056 -0.009959754811 -0.062195514123 0.852591389948 -0.540204780857
2.609898444000 0.854400908567 -0.520498661834 -0.016551093865 -0.067384930145 -0.009418370113 -0.062025550531 0.851592318688 -0.540812381996
2.611231555000 0.855223765220 -0.520214255754 -0.016040018403 -0.067248536120 -0.009557272601 -0.061951376295 0.851753255965 -0.541218934050
2.612564666000 0.855085718563 -0.520212834032 -0.016039934565 -0.067074170786 -0.009321169724 -0.061969057687 0.851879695969 -0.542024741482
2.613897777000 0.854971533145 -0.520748371773 -0.015637385491 -0.067055858868 -0.009012111284 -0.061970581359 0.851042766246 -0.542735874418
2.615230888000 0.855358117585 -0.521418738184 -0.015388797045 -0.066949645473 -0.008928272279 -0.061652648276 0.851520905072 -0.542716996538
2.616564000000 0.854098441427 -0.522321802397 -0.015341485904 -0.066961017309 -0.008385590470 -0.061760274212 0.851650839374 -0.543504173022
2.617897111000 0.853688748769 -0.524552060461 -0.015120064853 -0.067010776657 -0.008047022808 -0.061687397434 0.851509198911 -0.545399388372
2.619230222000 0.854678369978 -0.523439809672 -0.014844892008 -0.066967177742 -0.007915961772 -0.061341041640 0.850857720792 -0.543950385936
2.620563333000 0.853708243416 -0.522578910051 -0.014600836190 -0.066491737828 -0.007808789289 -0.061648365431 0.849948783154 -0.545621984481
2.621896444000 0.853411459502 -0.523173522778 -0.014360947319 -0.066473067693 -0.007503222443 -0.061397657846 0.850942247013 -0.545723641764
2.623229555000 0.853527244482 -0.524826485787 -0.014003925129 -0.066713299727 -0.007489537950 -0.061604586122 0.848515062313 -0.546932582042
2.624562666000 0.852409768064 -0.523609070851 -0.013751417471 -0.066445311878 -0.007211455773 -0.061580954202 0.848162690005 -0.546258210655
2.625895777000 0.852817961855 -0.526765303867 -0.013798601185 -0.066733763889 -0.006628815358 -0.061040383272 0.849941638985 -0.546342099877
2.627228888000 0.852035926660 -0.526059133366 -0.013522843495 -0.066631230648 -0.006375215896 -0.061309765963 0.849879102704 -0.547254632503
2.628562000000 0.854978781404 -0.525279642157 -0.013394814583 -0.067296104243 -0.004770655551 -0.059335781689 0.853496268090 -0.533564224421
2.629895111000 0.853036175949 -0.524700916439 -0.013303455545 -0.066863158974 -0.004548896388 -0.059239490181 0.853425077202 -0.533483492705
2.631228222000 0.854563683648 -0.525151433569 -0.013192576913 -0.066881364038 -0.004050519622 -0.058945903754 0.855965735823 -0.532047170127
2.632561333000 0.855494576154 -0.525073322923 -0.012676790350 -0.067355035169 -0.004114350642 -0.058936708827 0.853065323121 -0.531983872397
2.633894444000 0.851058249508 -0.527684380484 -0.012207218072 -0.066437606469 -0.004862627584 -0.061502181774 0.850016096387 -0.549292750595
2.635227555000 0.851573133357 -0.529214725512 -0.012053879421 -0.066875612586 -0.004540064902 -0.061212785730 0.849196839698 -0.547761875119
2.636560666000 0.852229362060 -0.527756587396 -0.011700056888 -0.066840090081 -0.004510737365 -0.061483188937 0.847746742112 -0.549425337790
2.637893777000 0.850705981084 -0.529057075231 -0.011536161030 -0.066831128818 -0.004185609162 -0.061532424149 0.848157449326 -0.550517925285
2.639226888000 0.849236929619 -0.530256223865 -0.011397253922 -0.066789568870 -0.003486145163 -0.061351211127 0.848222368670 -0.549577077938
2.640560000000 0.849971633964 -0.529793125496 -0.011020679829 -0.066923206236 -0.003597264001 -0.061465326569 0.847579620603 -0.551328364519
2.641893111000 0.849636813092 -0.530277215657 -0.010948729552 -0.066964474148 -0.003251107189 -0.061540073660 0.846926142266 -0.551150754044
2.643226222000 0.849004867306 -0.531038054570 -0.010613030896 -0.066963335495 -0.002888007249 -0.062023303917 0.845767455207 -0.550723675836
2.644559333000 0.849499477493 -0.532798756275 -0.010447472961 -0.067112613471 -0.002374655384 -0.062001776879 0.846179651626 -0.553174780623
2.645892444000 0.849291884283 -0.530548175600 -0.010211946451 -0.067223968878 -0.002349017749 -0.062182763069 0.846659495244 -0.551942492002
2.647225555000 0.847743264691 -0.532013300268 -0.009796204502 -0.067367924184 -0.002020281473 -0.062118983850 0.845331900515 -0.553022031248
2.648558666000 0.848061722479 -0.530961664131 -0.009591538296 -0.067349484177 -0.001786549529 -0.062232626334 0.844012051760 -0.554305037514
2.649891777000 0.846686560588 -0.531795002969 -0.009187803286 -0.067565867303 -0.001491636641 -0.062519305957 0.844635804778 -0.553928560054
2.651224888000 0.847028737800 -0.533464529601 -0.009206571969 -0.067698142103 -0.000876340398 -0.062469855806 0.844839443900 -0.553809195024
2.652558000000 0.846394120083 -0.534946354323 -0.008781343848 -0.067659414143 -0.000633469782 -0.062438949468 0.844425666179 -0.554627593537
2.653891111000 0.847505225346 -0.533728972467 -0.008226092746 -0.067824262816 -0.000220361643 -0.062514150408 0.842834897936 -0.555684065484
2.655224222000 0.846590930899 -0.532580844792 -0.007804790683 -0.067918737269 -0.000030744968 -0.062934747782 0.841944941817 -0.555169279990
2.656557333000 0.847766907553 -0.534517806710 -0.007913741622 -0.068286230191 0.000326675606 -0.062817204519 0.842831588032 -0.555103023827
2.657890444000 0.846508157696 -0.537760278129 -0.007504324419 -0.068268276912 0.000971910618 -0.062799618366 0.841907827691 -0.556097025219
2.659223555000 0.846515086310 -0.535896672248 -0.007488482186 -0.068453380493 0.000887328906 -0.063269653997 0.841692741111 -0.555486465987
2.660556666000 0.847506456476 -0.536579744649 -0.007512609839 -0.068820216548 0.001142988550 -0.063364433716 0.841661562296 -0.554593251752
2.661889777000 0.846417725592 -0.537350357726 -0.007300780076 -0.068890888199 0.001600564163 -0.063758379857 0.842396611281 -0.555746645029
2.663222888000 0.847552933276 -0.537581384630 -0.007162495974 -0.068877295696 0.001629044751 -0.063755158463 0.842304078552 -0.556616618231
2.664556000000 0.847099322339 -0.538389639499 -0.006797205281 -0.069236642163 0.002141145219 -0.063986474903 0.841054282850 -0.557181969737
2.665889111000 0.847065837037 -0.538177912576 -0.006734138069 -0.069618722760 0.001962811765 -0.064250385385 0.841822023451 -0.557601387235
2.667222222000 0.846519460657 -0.539823850712 -0.006407534427 -0.069906748777 0.002373387986 -0.064276753057 0.840983048277 -0.559230251795
2.668555333000 0.846761079133 -0.538622360784 -0.006109844274 -0.070271014387 0.002746353933 -0.064780418002 0.840351199007 -0.557780069870
2.669888444000 0.845413777423 -0.538390870100 -0.006023103027 -0.070352810215 0.002724563792 -0.065347909592 0.841790544179 -0.558397915234
2.671221555000 0.846561381554 -0.540545193107 -0.005928143025 -0.070512836088 0.002862121073 -0.065297085843 0.839750324928 -0.561409136462
2.672554666000 0.846445275475 -0.540050220246 -0.005789046697 -0.070699604192 0.002933985947 -0.065704506562 0.839936824030 -0.560452565487
2.673887777000 0.845103967136 -0.542454575081 -0.005365872926 -0.070635534076 0.003662091579 -0.065801423470 0.840139213058 -0.562445004671
2.675220888000 0.847231120303 -0.539505404459 -0.005442152381 -0.070967551826 0.003270141232 -0.066079956927 0.841109406356 -0.561632193409
2.676554000000 0.847280295042 -0.542573285486 -0.005214328665 -0.070954382810 0.003481259340 -0.066248837475 0.839740282038 -0.563603730288
2.677887111000 0.845887597393 -0.542644737413 -0.005611406472 -0.071436238919 0.003688557834 -0.066621310072 0.839521476016 -0.562266659699
2.679220222000 0.843599524674 -0.544434358882 -0.005204028135 -0.071451668654 0.004047096595 -0.067430686584 0.840841815042 -0.563915440217
2.680553333000 0.845711598220 -0.543280052951 -0.005260697891 -0.071800047680 0.003864506315 -0.067677018304 0.839205852631 -0.562755680521
2.681886444000 0.846177764221 -0.543615255161 -0.005079015726 -0.072005021448 0.004039333231 -0.067813673064 0.838683298398 -0.563807004779
2.683219555000 0.844742308823 -0.544805460222 -0.005290262186 -0.072315868176 0.004197276028 -0.068142026978 0.839360437116 -0.565158760514
2.684552666000 0.846394513006 -0.545737637590 -0.005228817314 -0.072469392373 0.003962857962 -0.068388943331 0.836261457826 -0.565013754742
2.685885777000 0.846531051626 -0.544622202749 -0.004495580117 -0.072688445391 0.004064251349 -0.069073871576 0.838184012192 -0.567299483962
2.687218888000 0.845309517223 -0.546091080036 -0.004871407112 -0.073066831360 0.004001700543 -0.069417808550 0.838338850404 -0.567065130603
2.688552000000 0.845883316000 -0.546367323071 -0.005058879737 -0.073494692806 0.004107950322 -0.069408192707 0.838650059617 -0.568151649830
2.689885111000 0.846238769953 -0.545756398194 -0.004753005091 -0.073359974627 0.003818762791 -0.069963872971 0.839945658683 -0.569264221490
2.691218222000 0.845542993570 -0.548137482560 -0.005123829572 -0.073474811048 0.004335486775 -0.070029018944 0.839040754739 -0.568728184635
2.692551333000 0.846368473632 -0.549334983504 -0.005076435975 -0.073651673777 0.004359246573 -0.070307359412 0.838345233618 -0.571320809790
2.693884444000 0.843807020709 -0.548635936183 -0.005239733811 -0.073624233458 0.003992569547 -0.071173492026 0.838835714762 -0.571339364948
2.695217555000 0.842324818757 -0.547942174519 -0.005241740695 -0.074327053836 0.003855193494 -0.071764979901 0.838103400226 -0.571703354151
2.696550666000 0.844449451493 -0.548613199989 -0.005398646428 -0.073929590869 0.003851989141 -0.071777280096 0.840237554380 -0.571430209357
2.697883777000 0.844893143573 -0.549834749006 -0.005480447413 -0.074126796948 0.003976029206 -0.072169086679 0.838888326136 -0.572923330604
2.699216888000 0.846067501916 -0.550752732718 -0.005381080999 -0.074612323568 0.003672159932 -0.072215350457 0.837827066606 -0.573429923373
2.700550000000 0.842430318344 -0.553291451950 -0.005215232341 -0.074577737917 0.003659464054 -0.072477995871 0.838272116963 -0.574944519643
2.701883111000 0.844958454709 -0.552440145364 -0.005720860172 -0.074955596280 0.003339914803 -0.073100358212 0.839111955996 -0.576450333081
2.703216222000 0.844484221341 -0.550909683731 -0.005905081630 -0.075128733841 0.002620058946 -0.073283217198 0.837070421740 -0.576170604750
2.704549333000 0.846333528748 -0.550464471195 -0.005883696459 -0.075273721607 0.002700973189 -0.073488567847 0.839193367362 -0.576944625158
2.705882444000 0.844831769080 -0.552647339186 -0.006282725356 -0.075410350158 0.002569932002 -0.073948741549 0.838523527368 -0.577029883221
2.707215555000 0.844847625594 -0.553525162648 -0.006553246708 -0.075699351430 0.002439994006 -0.074083741683 0.839964854051 -0.576239441940
2.708548666000 0.844011754365 -0.552523403398 -0.006916263604 -0.075525197582 0.002237739625 -0.074305100528 0.838123468945 -0.576698333987
2.709881777000 0.843544682032 -0.553439641638 -0.007105103015 -0.075787180189 0.001911305384 -0.074407770512 0.837869681370 -0.577405467531
2.711214888000 0.844728973133 -0.554519889100 -0.007519890199 -0.076044979660 0.001687989286 -0.074296382110 0.838222452106 -0.577462830885
2.712548000000 0.843980217505 -0.553154711374 -0.007498158859 -0.075864855125 0.001601917559 -0.075261753817 0.840336062740 -0.579103755772
2.713881111000 0.844522019828 -0.554884326714 -0.007682499289 -0.075764517140 0.001206553344 -0.075388689316 0.839656800476 -0.578602917189
2.715214222000 0.844126491444 -0.557155105299 -0.007634527261 -0.076141304604 0.001030064552 -0.075400185856 0.838515342190 -0.581623956299
2.716547333000 0.844348555151 -0.554117939038 -0.007800851346 -0.075811539434 0.000454546449 -0.075674635520 0.839512846310 -0.580240978665
2.717880444000 0.842897370607 -0.558344378564 -0.008281852901 -0.076382611247 0.000866618710 -0.075528221558 0.838960007057 -0.580131852459
2.719213555000 0.842855934319 -0.557219875249 -0.008745688281 -0.076158590263 -0.000211838405 -0.075978883087 0.837844169390 -0.583018984165
2.720546666000 0.843183638768 -0.558503614055 -0.008748618243 -0.076465138584 0.000066183905 -0.076206797605 0.839772292886 -0.582616773086
2.721879777000 0.843944158571 -0.556331114652 -0.008709814568 -0.076266464638 -0.000490267069 -0.076319946867 0.838265697032 -0.584571782444
2.723212888000 0.842809160593 -0.558248039626 -0.009076657774 -0.076030293635 -0.000658970895 -0.076451569029 0.840055546803 -0.583537961424
2.724546000000 0.844792180461 -0.558259726622 -0.008947504953 -0.076273375646 -0.000788589395 -0.076467113663 0.839397239152 -0.586420727607
2.725879111000 0.842957260689 -0.558225136676 -0.009460501501 -0.076040294468 -0.001593517709 -0.076580530502 0.837782445671 -0.586155604016
2.727212222000 0.843194498230 -0.560034634041 -0.009438681002 -0.076252273226 -0.001871657804 -0.076853435383 0.839393166566 -0.588361279818
2.728545333000 0.842159418629 -0.562153379322 -0.010021929076 -0.076534295719 -0.001953403273 -0.076805188324 0.838832646841 -0.587336190648
2.729878444000 0.841506565442 -0.561387120675 -0.010232284637 -0.076032744818 -0.002389253064 -0.076903664756 0.839008091567 -0.588332277953
2.731211555000 0.843091975042 -0.560943202192 -0.010197205730 -0.075998646571 -0.002507499747 -0.076836963220 0.840333715114 -0.588592226224
2.732544666000 0.842497640727 -0.560896650932 -0.010584928039 -0.075962415198 -0.003013342623 -0.076648394275 0.839466204870 -0.588070038419
2.733877777000 0.841903242500 -0.562044480933 -0.010831080767 -0.075971265783 -0.003159288525 -0.076750175792 0.840223429013 -0.589061775556
2.735210888000 0.841597087607 -0.562361153836 -0.011121853091 -0.075693736859 -0.003543522517 -0.076728768321 0.841306845986 -0.589622138974
2.736544000000 0.841466494004 -0.564439577663 -0.011431465905 -0.075950222581 -0.003949296186 -0.076377669264 0.838814170598 -0.588912216870
2.737877111000 0.843018671472 -0.563893531853 -0.011346319247 -0.075741689434 -0.004174429584 -0.076480422235 0.839660453202 -0.590528131031
2.739210222000 0.841601941643 -0.563276583706 -0.011541799664 -0.075272492444 -0.004369143906 -0.076575572952 0.840807834868 -0.591243355292
2.740543333000 0.843762187046 -0.564526777954 -0.011737815313 -0.075421943360 -0.004473275726 -0.076197350658 0.841880541931 -0.590843666617
2.741876444000 0.841468329922 -0.565368999766 -0.012132118974 -0.075500194114 -0.004999454038 -0.076263035253 0.840132918696 -0.591607896720
2.743209555000 0.840952311884 -0.565810712643 -0.012285947564 -0.075199763757 -0.005207954456 -0.076355346894 0.841344309954 -0.593377916248
2.744542666000 0.841831409500 -0.564254519634 -0.012266848922 -0.074667220136 -0.005514935936 -0.076133547071 0.841604399158 -0.593843135549
2.745875777000 0.842178413179 -0.565884831690 -0.012685258886 -0.074725743605 -0.005688752520 -0.075641229131 0.841586685231 -0.591289841087
2.747208888000 0.839847570933 -0.566163929913 -0.012802700525 -0.074507630068 -0.006140200474 -0.076033729848 0.840903336398 -0.595434524494
2.748542000000 0.840906231613 -0.566130472793 -0.012838301207 -0.074508734099 -0.006587391117 -0.075859236678 0.839786542657 -0.596124820537
2.749875111000 0.841834119654 -0.567526226391 -0.013016673674 -0.074513682124 -0.006720294890 -0.075365762584 0.839794039141 -0.594375331837
2.751208222000 0.839660013257 -0.568484296278 -0.013670228456 -0.074215471404 -0.006640743828 -0.075193528794 0.841184586902 -0.592826496119
2.752541333000 0.839540359643 -0.568927593138 -0.013606924433 -0.074137841567 -0.007058710055 -0.074995448477 0.840744699650 -0.595607280377
2.753874444000 0.839934653577 -0.568691729146 -0.013800336622 -0.073907838375 -0.007338785651 -0.074676149265 0.839889833709 -0.594003982086
2.755207555000 0.840394489073 -0.568801008411 -0.013810664040 -0.073787423550 -0.007335657882 -0.074901005155 0.841174898802 -0.597257448064
2.756540666000 0.839554472896 -0.569134120042 -0.013921786277 -0.073475457606 -0.007478610798 -0.074585802048 0.842091531793 -0.595684366997
2.757873777000 0.840098680939 -0.571385711463 -0.014059117744 -0.073464508767 -0.007784210382 -0.074353811707 0.841438658822 -0.596685230438
2.759206888000 0.840900700109 -0.570226696666 -0.014074602056 -0.073109027222 -0.007966016528 -0.074205128221 0.842459642941 -0.597081822856
2.760540000000 0.841586053423 -0.569397093584 -0.014132840657 -0.072730779037 -0.008226779783 -0.073602567300 0.842139098762 -0.596508635970
2.761873111000 0.839257428945 -0.571145767899 -0.014536046867 -0.072708562374 -0.008558899567 -0.073708329419 0.840975931660 -0.597987639833
2.763206222000 0.838922550268 -0.571205955928 -0.014609949684 -0.072384656876 -0.008600563005 -0.073385134101 0.843047428058 -0.596649960016
2.764539333000 0.839308593043 -0.573137448341 -0.014691286760 -0.072250541467 -0.008689064225 -0.073135129207 0.841550252928 -0.597138309670
2.765872444000 0.838751143600 -0.571240239585 -0.014635102793 -0.071780731117 -0.008832497143 -0.072851346872 0.842870248838 -0.597505840375
2.767205555000 0.838101521262 -0.572236883016 -0.014889511914 -0.071621180835 -0.009001884811 -0.072936908369 0.844037089503 -0.597774439329
2.768538666000 0.839583624730 -0.573665153633 -0.014783098892 -0.071477331294 -0.009075766997 -0.072498685137 0.841773772678 -0.598249725611
2.769871777000 0.837482977956 -0.576105413635 -0.015386010962 -0.071475691037 -0.008893143129 -0.072385898951 0.843863004482 -0.599344375753
2.771204888000 0.837551791681 -0.575856582637 -0.014982884434 -0.071247550100 -0.009185145229 -0.072089151598 0.843109208383 -0.599955825957
2.772538000000 0.837484381805 -0.575167064201 -0.015277578881 -0.070717649078 -0.009473615508 -0.071885732439 0.843323215499 -0.599745655447
2.773871111000 0.838075427895 -0.575278527641 -0.015283644186 -0.070822916261 -0.009381612024 -0.071392367232 0.841916042482 -0.599537522292
2.775204222000 0.837772976594 -0.575967037541 -0.015249906005 -0.070226706089 -0.009515910669 -0.071246124109 0.843667982485 -0.599744407054
2.776537333000 0.837285876904 -0.575398952946 -0.015323446334 -0.070063107733 -0.009669484666 -0.071047772994 0.842796109215 -0.599973301914
2.777870444000 0.837263107659 -0.576066281483 -0.015368515968 -0.069818056894 -0.009639361023 -0.070746279091 0.843078414065 -0.600187192693
2.779203555000 0.837530540628 -0.575473198696 -0.015287462118 -0.069679126787 -0.009813027868 -0.070490838563 0.842553859786 -0.600498736762
2.780536666000 0.836278107391 -0.576882419144 -0.015441684457 -0.069460324204 -0.009739028362 -0.070095045003 0.842651276228 -0.600055657190
2.781869777000 0.836705402619 -0.575778680173 -0.015572828783 -0.069067779635 -0.009690367040 -0.069914768344 0.842659383423 -0.600161816424
2.783202888000 0.837067404135 -0.577972061900 -0.015342494304 -0.068916905796 -0.009918956290 -0.069664994681 0.841757936298 -0.600685683460
2.784536000000 0.835669034979 -0.578958860924 -0.015476466693 -0.068743192742 -0.009910733667 -0.069326079894 0.842576309498 -0.600620773338
2.785869111000 0.836967408955 -0.578756286807 -0.015418817770 -0.068456899288 -0.009846909466 -0.069184291055 0.842418509760 -0.600958229781
2.787202222000 0.836312099315 -0.577640864427 -0.015310066727 -0.068288034074 -0.009944607014 -0.068731778588 0.842377641971 -0.601468003468
2.788535333000 0.835392737422 -0.578500568034 -0.015542373331 -0.068053023786 -0.009979033244 -0.068689314546 0.842072238471 -0.601821466707
2.789868444000 0.835305810637 -0.579729341581 -0.015436262911 -0.067928025156 -0.009968357280 -0.068333359444 0.841514491149 -0.601647942536
2.791201555000 0.835025864011 -0.580348804448 -0.015428033218 -0.067689894841 -0.009944353271 -0.067979287304 0.842321356585 -0.602092376797
2.792534666000 0.835009952075 -0.579916943966 -0.015347856508 -0.067351857165 -0.010006596434 -0.067759953301 0.842309976947 -0.601889757104
2.793867777000 0.835484418066 -0.579199204564 -0.015287376950 -0.067000947878 -0.009880358434 -0.067570884792 0.841672150931 -0.602452734127
2.795200888000 0.834766796440 -0.580886213069 -0.015268605202 -0.066996501633 -0.009990658435 -0.067146812022 0.841961661742 -0.603071031579
2.796534000000 0.833949780522 -0.579482330053 -0.015310546607 -0.066716859561 -0.010007945790 -0.067066347240 0.841192405185 -0.601973108717
2.797867111000 0.833983109389 -0.581876966415 -0.015251309171 -0.066552296756 -0.009905857393 -0.066633099214 0.839636884596 -0.602696785971
2.799200222000 0.833557710146 -0.582155846800 -0.015181965300 -0.066376564171 -0.009813282958 -0.066551061859 0.840580928273 -0.603259890856
2.800533333000 0.833629606441 -0.582252319371 -0.015035845380 -0.066075481551 -0.009936844311 -0.066190855598 0.840433293021 -0.601965889291
2.801866444000 0.832828827671 -0.582419006272 -0.014999262946 -0.065883551248 -0.009769008427 -0.066047890093 0.840765317730 -0.603275730714
2.803199555000 0.833246647483 -0.582701729383 -0.015031739136 -0.065646170097 -0.009724598187 -0.065957422394 0.840865873383 -0.604015520578
2.804532666000 0.832689920074 -0.583070180866 -0.014941709483 -0.065443500408 -0.009833301064 -0.065634978715 0.839356749192 -0.603514416686
2.805865777000 0.832393435159 -0.582331232085 -0.014715276068 -0.065278138529 -0.009583601973 -0.065249574548 0.839087435512 -0.604232791714
2.807198888000 0.831874431149 -0.584246960757 -0.014906336339 -0.065131433556 -0.009441318769 -0.065086000435 0.838924879197 -0.603090455563
2.808532000000 0.832193560915 -0.583360477084 -0.014689818322 -0.064918944938 -0.009536354481 -0.064748646075 0.838694738838 -0.604745165319
2.809865111000 0.831505537596 -0.584544585182 -0.014657358244 -0.064757319140 -0.009367829007 -0.064644495569 0.839010516200 -0.604073020853
2.811198222000 0.830701496154 -0.584990835398 -0.014555559152 -0.064599409412 -0.009303124899 -0.064396314953 0.839377440520 -0.604163665015
2.812531333000 0.830601191339 -0.585662097001 -0.014268679425 -0.064321875819 -0.009093028637 -0.064043237812 0.838213242676 -0.604251860960
2.813864444000 0.831243650235 -0.585044699546 -0.014380102234 -0.064148987841 -0.009013491770 -0.063946024877 0.839202238174 -0.604812001095
2.815197555000 0.831100235193 -0.585491269299 -0.014287604367 -0.063978002204 -0.008969355350 -0.063652190771 0.838348364509 -0.606090764045
2.816530666000 0.829413922378 -0.586472245799 -0.014072269198 -0.063769666638 -0.008817751428 -0.063453434644 0.837517195284 -0.604509435450
2.817863777000 0.830311237777 -0.586382297305 -0.013937821811 -0.063642660764 -0.008704576417 -0.063165912667 0.836546057397 -0.605230263589
2.819196888000 0.829735307908 -0.586858889784 -0.013814033192 -0.063445241917 -0.008466166515 -0.063058252884 0.838604025515 -0.606222149006
2.820530000000 0.829280743531 -0.586659960470 -0.013742061419 -0.063170630377 -0.008425718345 -0.062914176175 0.837957859684 -0.606093175759
2.821863111000 0.829304396794 -0.587587814477 -0.013807566107 -0.063112264642 -0.008189882564 -0.062578730472 0.836790624315 -0.606226493410
2.823196222000 0.828787034753 -0.588079896925 -0.013603986710 -0.062692312712 -0.008093764920 -0.062473838978 0.837629051160 -0.607384726182
2.824529333000 0.828564924474 -0.588687952023 -0.013483736504 -0.062691219880 -0.007914851955 -0.062456939876 0.837030832865 -0.608058328165
2.825862444000 0.829157278348 -0.590203993510 -0.013262876512 -0.062775950539 -0.007628147273 -0.062078942032 0.837178755023 -0.608006002390
2.827195555000 0.828170425820 -0.589401383420 -0.012950884102 -0.062465616181 -0.007514619730 -0.061943849117 0.836162152962 -0.607726717146
2.828528666000 0.827564146563 -0.589947195581 -0.012646106809 -0.062351090624 -0.007604404372 -0.061671127979 0.835638657623 -0.607172464882
2.829861777000 0.828398371898 -0.590505997331 -0.012606180246 -0.062243739786 -0.007580262092 -0.061444523797 0.834622154109 -0.607261197331
2.831194888000 0.827119307429 -0.590886014529 -0.012803872547 -0.062084799044 -0.007435653327 -0.061142687102 0.834340235629 -0.607075659786
2.832528000000 0.825726430461 -0.590979382609 -0.012768379403 -0.061655246686 -0.006718313122 -0.061013298507 0.837615648786 -0.606613668985
2.833861111000 0.826548507202 -0.591485706325 -0.012369593807 -0.061809201395 -0.006669209953 -0.060694202416 0.835122629487 -0.605904344439
2.835194222000 0.826358538075 -0.592929908151 -0.011969628377 -0.062005802260 -0.006771167249 -0.060761930097 0.834567500876 -0.608894114773
2.836527333000 0.827009195192 -0.592010855060 -0.012080122685 -0.061606948523 -0.006491186099 -0.060700079469 0.834896610278 -0.609666992385
2.837860444000 0.825842188968 -0.593284245975 -0.011681846533 -0.061557210049 -0.006000209073 -0.060536460237 0.835745452435 -0.609032086772
2.839193555000 0.825390334174 -0.594536248348 -0.011651542657 -0.061425253800 -0.005925474025 -0.060264585788 0.834952252645 -0.609168186107
2.840526666000 0.824279510440 -0.593628560696 -0.011536555960 -0.061319611399 -0.005729440570 -0.060279115882 0.834198805469 -0.609736904436
2.841859777000 0.824946220754 -0.596101449144 -0.011473827272 -0.061208041141 -0.005331082200 -0.060153334577 0.835357529130 -0.610112394248
2.843192888000 0.823977485250 -0.594222498430 -0.011085813860 -0.061195944927 -0.004955198268 -0.059963199716 0.835866812244 -0.609057768850
2.844526000000 0.823719039275 -0.596036847442 -0.010943569627 -0.061101080097 -0.005189215988 -0.059803106466 0.833382046225 -0.610117719018
2.845859111000 0.823338209894 -0.595791523565 -0.010623034302 -0.060986068524 -0.004951260599 -0.059635847873 0.832875038573 -0.610120556005
2.847192222000 0.824086786128 -0.596616861499 -0.010570950964 -0.060880420898 -0.004747352626 -0.059519093771 0.833288399420 -0.610680509370
2.848525333000 0.822206928434 -0.597459063191 -0.010536719157 -0.060836505894 -0.004407066152 -0.059464000334 0.833034724314 -0.610772128782
2.849858444000 0.821864716098 -0.596719046403 -0.010425816828 -0.060777796697 -0.004326323432 -0.059350515533 0.831888883148 -0.610626610397
2.851191555000 0.821601024199 -0.598855627243 -0.010091538237 -0.060861322528 -0.003884088357 -0.059220650819 0.832569420434 -0.610576635220
2.852524666000 0.821364571850 -0.598709473947 -0.009776951829 -0.060603689031 -0.003562814288 -0.059250833188 0.833644273890 -0.611526477733
2.853857777000 0.821860832793 -0.599633599361 -0.009528563948 -0.060801823761 -0.003536642973 -0.059012716394 0.831245556301 -0.611273719267
2.855190888000 0.822413905352 -0.599220068391 -0.009219770798 -0.060634406297 -0.003143681677 -0.058959572002 0.832040893014 -0.611379866324
2.856524000000 0.821022351699 -0.601162987977 -0.009210774198 -0.060646213454 -0.002851017740 -0.058884622036 0.831622107079 -0.611924932247
2.857857111000 0.821129212321 -0.599680118618 -0.009019701132 -0.060499362614 -0.002691375881 -0.058907977005 0.831154074717 -0.612640364637
2.859190222000 0.821618439738 -0.600581973472 -0.008563085804 -0.060436012010 -0.002379498101 -0.058984358107 0.831371276258 -0.614123373634
2.860523333000 0.820247716783 -0.603141951296 -0.008365336739 -0.060779163822 -0.002319633433 -0.059015257884 0.829232555802 -0.614650412069
2.861856444000 0.818391009766 -0.601015662968 -0.008388743680 -0.060533282631 -0.002094589564 -0.058819377388 0.828156473000 -0.613782686937
2.863189555000 0.819081800677 -0.600652006179 -0.008015737383 -0.060435916191 -0.001936755614 -0.058830868912 0.828705200334 -0.613097441099
2.864522666000 0.820004737738 -0.602693061546 -0.007516516078 -0.060567527763 -0.001457112930 -0.059006696845 0.829125940871 -0.615234379727
2.865855777000 0.818356318860 -0.604498574164 -0.007806552174 -0.060534042023 -0.000980575600 -0.058806936226 0.829829100904 -0.613176492000
2.867188888000 0.821449411177 -0.603886394367 -0.007226669099 -0.060851734758 -0.000938970374 -0.058609412636 0.828511176791 -0.614747922156
2.868522000000 0.817535591753 -0.605272633560 -0.007468198325 -0.060854508888 -0.000585816712 -0.058922854442 0.827978679352 -0.614986605265
2.869855111000 0.817695817915 -0.605393150501 -0.007054062600 -0.060917048667 -0.000295498969 -0.058766211001 0.827397688518 -0.614162110853
2.871188222000 0.817576579337 -0.602914790694 -0.006867509047 -0.060601938783 -0.000168349353 -0.059085363552 0.828561777502 -0.615498456505
2.872521333000 0.816764932025 -0.605805975827 -0.006611220875 -0.060913934740 0.000306572644 -0.059012696324 0.828079174569 -0.614958939322
2.873854444000 0.818011246732 -0.606682448040 -0.006338970228 -0.061089412761 0.000509664918 -0.059027093027 0.827026282623 -0.616568205260
2.875187555000 0.817271260069 -0.605319151691 -0.006261132955 -0.060956618851 0.000634203888 -0.059162375844 0.826405107489 -0.616384871172
2.876520666000 0.817564581368 -0.606551522106 -0.005698737577 -0.061197581111 0.000920091930 -0.059128497815 0.825344184311 -0.616983737882
2.877853777000 0.816401736481 -0.607242906736 -0.005755151224 -0.061220456261 0.001345647288 -0.059245656663 0.825501187249 -0.616552782855
2.879186888000 0.818037685356 -0.607491076764 -0.005113761497 -0.061312374983 0.001496043541 -0.059282833509 0.825168828993 -0.617887858339
2.880520000000 0.817072960827 -0.608803739513 -0.005023987357 -0.061698237440 0.001888424272 -0.059481686822 0.824513333320 -0.617587267179
2.881853111000 0.815107634390 -0.609494645394 -0.004906433751 -0.061665910398 0.002244582465 -0.059566633424 0.825029100391 -0.618172219439
2.883186222000 0.814662745537 -0.609696960492 -0.005000432774 -0.061735120283 0.002411717208 -0.059952979008 0.824435004441 -0.619162836521
2.884519333000 0.813658621346 -0.609317276201 -0.004676933841 -0.061807070137 0.002676710741 -0.059950800886 0.822951357472 -0.618774061433
2.885852444000 0.813881239762 -0.610443273028 -0.004420892332 -0.061834128854 0.003072334434 -0.060113850287 0.823535261381 -0.619437956599
2.887185555000 0.813322239638 -0.611367843301 -0.004300776658 -0.062200083812 0.003221353680 -0.060191556564 0.822967308232 -0.619191962897
2.888518666000 0.815545857252 -0.611309365005 -0.003832036171 -0.062391098422 0.003308485849 -0.060343075280 0.822304991874 -0.620296884414
2.889851777000 0.813415118986 -0.610421611477 -0.003670926106 -0.062235756745 0.003742610950 -0.060714107035 0.822766842919 -0.620020468235
2.891184888000 0.813476999266 -0.612002739630 -0.003704635744 -0.062856291367 0.004029454773 -0.060736922807 0.820918623783 -0.619280234556
2.892518000000 0.812853371510 -0.610993260182 -0.003463770138 -0.062778164679 0.004059590988 -0.061036614056 0.821287404001 -0.621247715235
2.893851111000 0.813240378947 -0.612152795394 -0.003080893025 -0.063085475295 0.004368535719 -0.061069279110 0.820129971156 -0.621012076342
2.895184222000 0.813107964149 -0.614225717147 -0.003227685086 -0.063546263835 0.004916441865 -0.061583375542 0.820733600041 -0.621069090325
2.896517333000 0.813781516005 -0.614315876007 -0.002850025044 -0.063655461691 0.004827886708 -0.061619562273 0.820595844043 -0.622075682224
2.897850444000 0.812221860216 -0.614856541827 -0.002862351605 -0.063918439407 0.005111135973 -0.061933528488 0.820226610443 -0.621250171694
2.899183555000 0.813550571914 -0.613739662603 -0.002323296962 -0.064156585534 0.005229934780 -0.062163829365 0.819322471107 -0.621973179082
2.900516666000 0.812706004456 -0.614588119490 -0.002274516129 -0.064449641365 0.005300396402 -0.062564950845 0.818701444959 -0.622629878213
2.901849777000 0.813284869428 -0.616379776004 -0.002054420520 -0.064941191832 0.005688498370 -0.062689409736 0.818653639410 -0.622656206289
2.903182888000 0.812953010903 -0.616545464568 -0.002143340298 -0.065159068165 0.005930035708 -0.063156613321 0.817384162707 -0.624077402927
2.904516000000 0.812706546755 -0.617700853120 -0.002125372823 -0.065394713755 0.005963558201 -0.063344156897 0.817681352739 -0.624293639193
2.905849111000 0.811033086872 -0.616978194720 -0.002037274959 -0.065578175340 0.006126344660 -0.063778278008 0.817656120565 -0.625478992281
2.907182222000 0.811996800587 -0.616459134320 -0.001714709045 -0.065779249179 0.006160868154 -0.064025979432 0.817883205600 -0.624991407532
2.908515333000 0.812829616780 -0.617883193251 -0.001510242595 -0.066071315641 0.006192965867 -0.064442391196 0.816621152623 -0.625778061434
2.909848444000 0.811633227847 -0.618256830609 -0.001661627429 -0.066502922084 0.006387871875 -0.064864896708 0.816361383792 -0.626229355845
2.911181555000 0.812288290491 -0.619324983114 -0.001428396171 -0.066875168092 0.006437780704 -0.065134159020 0.815850713239 -0.627378616852
2.912514666000 0.812176850414 -0.620538215505 -0.001581141193 -0.067304624551 0.006817039567 -0.065578298146 0.815420442055 -0.627019588219
2.913847777000 0.811132314019 -0.619142591944 -0.001411071085 -0.067197875134 0.006661804655 -0.065978617092 0.814887503966 -0.627183665208
2.915180888000 0.811912935505 -0.620491944310 -0.001442807353 -0.067734195938 0.007043193787 -0.066221560255 0.814718236789 -0.627158979208
2.916514000000 0.809700535424 -0.619825610127 -0.001477349386 -0.067807821526 0.007023403741 -0.066715905713 0.814782349172 -0.628405132283
2.917847111000 0.810038044595 -0.620602945204 -0.001595127477 -0.068246737675 0.006673493722 -0.067103095414 0.815291567018 -0.628538419762
2.919180222000 0.809983709446 -0.621729032883 -0.001475493244 -0.068703693147 0.007102436252 -0.067569882260 0.813500067699 -0.630931801156
2.920513333000 0.809664768216 -0.622598041462 -0.001746186630 -0.068981490229 0.007084561901 -0.068094583727 0.813807625943 -0.629233462697
2.921846444000 0.810087052135 -0.623278293435 -0.001652010224 -0.069228277348 0.006878144398 -0.068464792731 0.813964725077 -0.630538915945
2.923179555000 0.810605293977 -0.622616285481 -0.001476614264 -0.069558918153 0.006760127427 -0.068608701554 0.811342600599 -0.632035642844
2.924512666000 0.810685141119 -0.623347859463 -0.001428262339 -0.069753758872 0.006733014577 -0.069071471738 0.811415677200 -0.633249736672
2.925845777000 0.811497692054 -0.625658485167 -0.001593777327 -0.070644378805 0.006913540382 -0.069337826667 0.810913451305 -0.634948487700
2.927178888000 0.810719050264 -0.625615237878 -0.001649310691 -0.070606483892 0.006995064820 -0.070089364186 0.813382303915 -0.633969138660
2.928512000000 0.809811481342 -0.626672612542 -0.001802405028 -0.070887317676 0.006588826031 -0.070176516094 0.811681787696 -0.632920425511
2.929845111000 0.808483772261 -0.625667967492 -0.002072695369 -0.070970217627 0.006757569179 -0.070566763400 0.812333837571 -0.634449005575
2.931178222000 0.809258514754 -0.626032698855 -0.002227328712 -0.071302939069 0.005989404731 -0.071207010026 0.811799080051 -0.633603271301
2.932511333000 0.810690353708 -0.627288508809 -0.002340220141 -0.071923138814 0.006175010258 -0.071342045708 0.811148185539 -0.635102236243
2.933844444000 0.809873138697 -0.627551456204 -0.002557623929 -0.071928156423 0.005835969746 -0.071809928820 0.810483939889 -0.634988461109
2.935177555000 0.809471206440 -0.627596142583 -0.002731437845 -0.071905646578 0.005418382870 -0.072024085829 0.811792530206 -0.635761730195
2.936510666000 0.808644740593 -0.627869192198 -0.002968231622 -0.072334989070 0.005387028137 -0.072807025677 0.809329691723 -0.637370283759
2.937843777000 0.809156714459 -0.628454252814 -0.002877299337 -0.072428350516 0.004864438238 -0.073316191716 0.810191778424 -0.640702764490
2.939176888000 0.808876368753 -0.631610867125 -0.002898461841 -0.073198467206 0.005423656250 -0.073316519105 0.810911656367 -0.638606247822
2.940510000000 0.807758221762 -0.631515170445 -0.003257630255 -0.073383824406 0.004500955399 -0.074078637228 0.808223329402 -0.639197967392
2.941843111000 0.809930608030 -0.632687527533 -0.003254709679 -0.073527193360 0.004650157517 -0.074353274817 0.811038686736 -0.641490724389
2.943176222000 0.808270662201 -0.632738873916 -0.003781318439 -0.073828153090 0.004149625726 -0.074409516489 0.809765883194 -0.640012389538
2.944509333000 0.808297277152 -0.632829557067 -0.003919009637 -0.073946387700 0.003765347076 -0.075136723045 0.809358714055 -0.643015947695
2.945842444000 0.808364585474 -0.633720462275 -0.004352998533 -0.074395226640 0.003609014374 -0.075238074367 0.807789276581 -0.641809318613
2.947175555000 0.809056876967 -0.634629585338 -0.004452132662 -0.074328301469 0.003055869742 -0.075381503330 0.809686403228 -0.643735399281
2.948508666000 0.807451556067 -0.634667888522 -0.004585495905 -0.074610848588 0.002312982410 -0.076073569024 0.808811838582 -0.645042679192
2.949841777000 0.809247596410 -0.635303868671 -0.005205086172 -0.075070638763 0.002558611581 -0.075866862495 0.806846011706 -0.645351727446
2.951174888000 0.805375690319 -0.635531504920 -0.005374223747 -0.074980351554 0.001694385632 -0.076985880115 0.807662068094 -0.647492613204
2.952508000000 0.807823530680 -0.637362671449 -0.005743462956 -0.075195630662 0.001902255125 -0.076541845761 0.808955121999 -0.646250149644
2.953841111000 0.805957539411 -0.637407137282 -0.006645449211 -0.075274848562 0.000831841755 -0.076616749352 0.802481088077 -0.644137368290
2.955174222000 0.807856573603 -0.637758452605 -0.006473079348 -0.075386202492 0.000699424890 -0.076673876930 0.802636857918 -0.646907747982
2.956507333000 0.806073066426 -0.638729038807 -0.006855441007 -0.075378601098 0.000502799586 -0.077208653082 0.805634526785 -0.646210396292
2.957840444000 0.806922604306 -0.639471820935 -0.006839506120 -0.075357062622 0.000204231959 -0.077654096294 0.806591713981 -0.648912188648
2.959173555000 0.807737760703 -0.641228129366 -0.007027016783 -0.075867869288 -0.000814122866 -0.077776015102 0.801356479853 -0.653633283305
2.960506666000 0.807157486754 -0.641064853045 -0.007490578941 -0.075384230835 -0.000408118832 -0.077764808276 0.807945528449 -0.648853199415
2.961839777000 0.805746603217 -0.640650748078 -0.008066206761 -0.075646506195 -0.001237415718 -0.077895681222 0.805448816217 -0.651499087675
2.963172888000 0.806894617625 -0.641792100162 -0.008610038808 -0.075990710264 -0.002086576985 -0.077524590715 0.800880860047 -0.650833929634
2.964506000000 0.806037536005 -0.642062694387 -0.008381831762 -0.075512835171 -0.001732748356 -0.078267057758 0.807613681045 -0.651185139676
2.965839111000 0.805926706157 -0.642478630279 -0.008897707767 -0.075658905781 -0.002774059071 -0.078095379864 0.803703637299 -0.654098520701
2.967172222000 0.805019062396 -0.643988493639 -0.009458667365 -0.075418201686 -0.002779685690 -0.078133372144 0.806551713787 -0.652473207531
2.968505333000 0.805224614438 -0.643961413710 -0.009618810942 -0.075585760368 -0.003527808556 -0.078184319491 0.803784707484 -0.655001346348
2.969838444000 0.805127986917 -0.643779903360 -0.009860210285 -0.075603337062 -0.003835603103 -0.078148001618 0.804104028745 -0.654075553718
2.971171555000 0.805078602972 -0.645516885487 -0.010464592469 -0.075591368389 -0.004591584968 -0.078227967268 0.802943616830 -0.657010986291
2.972504666000 0.804283416819 -0.645677080226 -0.010862039587 -0.075431864617 -0.004571753411 -0.078031645052 0.802995857380 -0.654290296122
2.973837777000 0.803966813831 -0.645829230720 -0.010786788668 -0.075276914121 -0.005147040849 -0.078418154424 0.804762833647 -0.658249769780
2.975170888000 0.804411459555 -0.646201784060 -0.011103399346 -0.075432235197 -0.005645350883 -0.078206298840 0.803216890959 -0.659126475553
2.976504000000 0.803638475053 -0.647477645744 -0.011145166401 -0.075062414775 -0.005608968257 -0.078377027665 0.806279421550 -0.659027856038
2.977837111000 0.803164463974 -0.647171286477 -0.011877071510 -0.075034867294 -0.006457385089 -0.077824563261 0.802017684803 -0.657947567999
2.979170222000 0.803892741158 -0.649866357897 -0.011955335013 -0.075157100652 -0.006662209679 -0.078102678022 0.802859143810 -0.661353102644
2.980503333000 0.803990790907 -0.648783638975 -0.012342078309 -0.074989618512 -0.007019373860 -0.077782965872 0.803700030364 -0.660296047444
2.981836444000 0.803602557291 -0.649941000431 -0.012517367155 -0.074848810646 -0.007319933772 -0.077654359000 0.802992787399 -0.659842897791
2.983169555000 0.804071880114 -0.652128919243 -0.012674521844 -0.074660307925 -0.007806145999 -0.077835297440 0.802950810156 -0.663425065538
2.984502666000 0.804139102152 -0.651312336658 -0.013254292479 -0.074517901156 -0.008044086861 -0.077419949467 0.802966362959 -0.661520549362
2.985835777000 0.802998517043 -0.650376784107 -0.013165950966 -0.074281219667 -0.008566098358 -0.077311917170 0.802989485532 -0.662794863048
2.987168888000 0.801851939660 -0.652090247734 -0.013793839333 -0.074160125202 -0.008784693081 -0.077179492605 0.802973511599 -0.662200011855
2.988502000000 0.801643144335 -0.648577786432 -0.013713350988 -0.073304935007 -0.009538428875 -0.076912608823 0.801334799371 -0.664152760862
2.989835111000 0.804055501890 -0.653920628706 -0.014102741638 -0.073724451805 -0.009539494626 -0.076645066331 0.801935487810 -0.664027506894
2.991168222000 0.800102806951 -0.651117476522 -0.014503427924 -0.073248908047 -0.009984721433 -0.076423680606 0.802144075501 -0.663187510915
2.992501333000 0.801222286215 -0.656390579001 -0.014937835321 -0.073216985112 -0.010187070216 -0.076613316355 0.803282273445 -0.666217893464
2.993834444000 0.803771035409 -0.652291168383 -0.014863607077 -0.072955067944 -0.010404857373 -0.075870679869 0.802240736165 -0.665309522522
2.995167555000 0.802111996283 -0.654219999274 -0.014933520801 -0.072862134071 -0.010834689775 -0.075738579265 0.801405347316 -0.664693423574
2.996500666000 0.800764108621 -0.654758637037 -0.015236036534 -0.072660961828 -0.011054646381 -0.075531688284 0.801520083820 -0.665047873828
2.997833777000 0.801128896273 -0.654765778492 -0.015219103374 -0.072541048359 -0.011405750326 -0.075619731424 0.802149570680 -0.667561349642
2.999166888000 0.801139941091 -0.655925518861 -0.015417312715 -0.072027536754 -0.011374712331 -0.075413762095 0.804163635878 -0.666958751561
3.000500000000 0.804166936317 -0.658347509263 -0.015393663745 -0.072211095958 -0.011573293873 -0.075041934922 0.803000167199 -0.667190255184
3.001833111000 0.802000371073 -0.655434468067 -0.015560296774 -0.071554211186 -0.012077596367 -0.074545721457 0.801777364931 -0.667510915062
3.003166222000 0.799761043521 -0.658520516879 -0.015800664699 -0.071557428269 -0.012072398294 -0.074634064568 0.803316911615 -0.668319856297
3.004499333000 0.802098142989 -0.657791854223 -0.015962440542 -0.071082954089 -0.012358819833 -0.074237714698 0.802912214374 -0.668994340539
3.005832444000 0.797901453763 -0.657411742516 -0.016406718660 -0.070698890259 -0.012917127948 -0.074141495182 0.801322778398 -0.670400636021
3.007165555000 0.802352324360 -0.658138226469 -0.015915123877 -0.070720089112 -0.012793114615 -0.073797104467 0.802732428556 -0.670397713942
3.008498666000 0.800084013874 -0.658152827938 -0.016513736122 -0.070359132575 -0.013049797176 -0.073331398783 0.802478702880 -0.669445666425
3.009831777000 0.800755359925 -0.660230303325 -0.016757262255 -0.070091917785 -0.013151519802 -0.073135716156 0.802430710737 -0.670384647067
3.011164888000 0.798763737889 -0.660402578658 -0.016905643546 -0.069926833945 -0.013616046738 -0.072860541953 0.801099914011 -0.671077003765
3.012497999000 0.800195161109 -0.659631778611 -0.016828241896 -0.069744960913 -0.013552747043 -0.072785732549 0.801936717708 -0.672458676603
3.013831111000 0.801306444282 -0.661786763889 -0.016752050015 -0.069583571544 -0.013715983113 -0.072655527593 0.801787118423 -0.673202299849
3.015164222000 0.801193656394 -0.659498433285 -0.016800233523 -0.069245570838 -0.013830256621 -0.071930508011 0.802727149274 -0.672221670544
3.016497333000 0.798072717294 -0.658734937556 -0.016914667406 -0.068710234331 -0.014295109459 -0.071856298481 0.800608462976 -0.674196031706
3.017830444000 0.800477517574 -0.661283717033 -0.017132353670 -0.068757101084 -0.014220407688 -0.071494255596 0.800881569013 -0.673180462843
3.019163555000 0.798964126654 -0.661795122900 -0.017136492042 -0.068492784241 -0.014428961634 -0.071356245820 0.800612454219 -0.674082675623
3.020496666000 0.798737382421 -0.660728727148 -0.017041316849 -0.068042164504 -0.014436842969 -0.071011539078 0.802080884722 -0.674809322448
3.021829777000 0.799026736480 -0.660214685055 -0.017154407398 -0.067757327637 -0.014558445283 -0.070576333091 0.802403994426 -0.674522074160
3.023162888000 0.797248180601 -0.662329801033 -0.017257025308 -0.067386149662 -0.014776602540 -0.070755818472 0.802864877199 -0.676312638821
3.024495999000 0.798808854307 -0.662196247868 -0.017084533568 -0.067357508738 -0.014925154598 -0.070170530039 0.801689434746 -0.676466273466
3.025829111000 0.797462520276 -0.665735139536 -0.017551103132 -0.067312449688 -0.014695739123 -0.070053394212 0.801571699214 -0.675687647692
3.027162222000 0.798039934416 -0.663957722224 -0.017526425606 -0.066856209098 -0.014923610181 -0.069811620843 0.800606366520 -0.677096861790
3.028495333000 0.797869084713 -0.664917531691 -0.017364966433 -0.066723004814 -0.014935795546 -0.069366584795 0.800789376679 -0.677658515857
3.029828444000 0.797653277927 -0.663797739088 -0.017379024521 -0.066349008533 -0.015086720931 -0.069277003151 0.801865753394 -0.678561961695
3.031161555000 0.797654123003 -0.666225634337 -0.017453024961 -0.066160063084 -0.014832592443 -0.068906041836 0.801580125756 -0.677791511003
3.032494666000 0.797491513289 -0.667625307384 -0.017358662895 -0.066187571339 -0.014873831955 -0.068744549753 0.802113796211 -0.679784014581
3.033827777000 0.794939696927 -0.664876952750 -0.017729830235 -0.065586593215 -0.015332976008 -0.068480545508 0.800687801591 -0.678855038795
3.035160888000 0.798046475696 -0.667985226624 -0.017326048469 -0.065825914528 -0.014891163532 -0.068012332635 0.802043676215 -0.680366267610
3.036493999000 0.795307795311 -0.665064521509 -0.017410597533 -0.065085883513 -0.015221193851 -0.068154302017 0.802468104585 -0.681119343056
3.037827111000 0.795864923665 -0.667573685179 -0.017553624554 -0.064902007744 -0.015387119199 -0.067376162756 0.800571833927 -0.680682850890
3.039160222000 0.794991033694 -0.665858128487 -0.017559332584 -0.064589358361 -0.015323898037 -0.067334131869 0.800441109761 -0.679960209871
3.040493333000 0.795157142434 -0.667461280902 -0.017654399903 -0.064445988558 -0.015244370770 -0.067050772043 0.800932565613 -0.679429934664
3.041826444000 0.797034821419 -0.666366723527 -0.017400489205 -0.064284239419 -0.015058381986 -0.066552679404 0.800476140872 -0.680592303782
3.043159555000 0.796245437761 -0.666951031978 -0.017510813661 -0.063993553073 -0.015227521047 -0.066424180866 0.800949918048 -0.680257190065
3.044492666000 0.795795197270 -0.667600599750 -0.017356871775 -0.063848228647 -0.015140712376 -0.066198678886 0.800720792573 -0.681286480978
3.045825777000 0.794251577611 -0.669238706817 -0.017578058264 -0.063639846465 -0.015102450176 -0.065935898262 0.801217170160 -0.680902637373
3.047158888000 0.795080718028 -0.668714787926 -0.017237056034 -0.063271006240 -0.015060244834 -0.065589718286 0.801273814723 -0.680788612181
3.048491999000 0.795878798971 -0.669401669331 -0.017134314263 -0.063212920698 -0.014967974957 -0.065455437317 0.800467705168 -0.681717610814
3.049825111000 0.795023746641 -0.669227653839 -0.017271847133 -0.063070428035 -0.015207457338 -0.065194452557 0.799312996600 -0.682501942821
3.051158222000 0.794580733752 -0.669435461240 -0.017192045555 -0.062741193535 -0.015175570899 -0.065061572034 0.799641180407 -0.682867643810
3.052491333000 0.794040757558 -0.670901901569 -0.017264453298 -0.062627943432 -0.014939319605 -0.064656165373 0.799155538087 -0.682567589003
3.053824444000 0.794254961274 -0.669582294087 -0.016949009834 -0.062164666351 -0.014806339337 -0.064612704455 0.801543395925 -0.683156214201
3.055157555000 0.794432994714 -0.672157580296 -0.016868579217 -0.062374454740 -0.014767272577 -0.064379429702 0.800229542100 -0.683484210310
3.056490666000 0.793398837855 -0.670478735037 -0.016788446298 -0.061795931784 -0.014779089850 -0.063974168164 0.800448091742 -0.683865913272
3.057823777000 0.794105934705 -0.672028476858 -0.016782750282 -0.061839627912 -0.014765290539 -0.064058210878 0.800449006887 -0.683879958257
3.059156888000 0.793752216088 -0.672507002396 -0.016632218929 -0.061614553744 -0.014566674273 -0.063596427227 0.800011485703 -0.683528128331
3.060489999000 0.793131598502 -0.672528475628 -0.016593757935 -0.061389740251 -0.014372178581 -0.063632579622 0.801146775447 -0.684198086011
3.061823111000 0.793516789758 -0.673678358976 -0.016500030483 -0.061398200276 -0.014459022389 -0.063311781173 0.800670505508 -0.685852371188
3.063156222000 0.792454618265 -0.672934609840 -0.016382740815 -0.061104565580 -0.014371440118 -0.063276443185 0.800722461878 -0.685421225377
3.064489333000 0.791268623665 -0.674477176278 -0.016420616722 -0.061046748418 -0.014103755277 -0.062959579562 0.800473612427 -0.684397896143
3.065822444000 0.793380618298 -0.674453116101 -0.016156527699 -0.060881424239 -0.014094441957 -0.062683296185 0.800127382304 -0.684179067933
3.067155555000 0.792859111582 -0.674212400541 -0.016101807605 -0.060635321079 -0.014005583113 -0.062433006169 0.800195586020 -0.684781091745
3.068488666000 0.791857708343 -0.674709162063 -0.015897723756 -0.060474917837 -0.013841746463 -0.062156357852 0.799768489742 -0.684359178552
3.069821777000 0.789697078087 -0.673970015111 -0.015992480538 -0.060150263795 -0.013833859833 -0.062104822970 0.799594206839 -0.685354431843
3.071154888000 0.791268766110 -0.673516692510 -0.015880101143 -0.060085160128 -0.013747206539 -0.061813043462 0.800452972472 -0.684326625235
3.072487999000 0.791688438636 -0.676375371510 -0.015710374521 -0.060245203949 -0.013530475295 -0.061862774801 0.801107564434 -0.686432856997
3.073821111000 0.790111623734 -0.676025112542 -0.015619554082 -0.059980392920 -0.013539993031 -0.061397077405 0.799317969560 -0.685804540038
3.075154222000 0.789163532143 -0.675533999966 -0.015530759379 -0.059800163933 -0.013459080734 -0.061416542023 0.799928864502 -0.686920227912
3.076487333000 0.789116637604 -0.676866616091 -0.015485577696 -0.059639970760 -0.013430418820 -0.061238826785 0.797822832513 -0.686724878696
3.077820444000 0.790406428938 -0.675452822699 -0.015188289149 -0.059452571467 -0.013195468018 -0.060720323079 0.800132944406 -0.685194890105
3.079153555000 0.789897809183 -0.678227325078 -0.015017132390 -0.059442740948 -0.013153903714 -0.061242170364 0.801257018652 -0.689664015855
3.080486666000 0.788563463565 -0.677439746718 -0.014948854457 -0.059422883515 -0.013010129981 -0.060882570910 0.800028188505 -0.688480072700
3.081819777000 0.788590369534 -0.678289392826 -0.014922441947 -0.059260901366 -0.012552779193 -0.060667025902 0.800590712703 -0.688368084635
3.083152888000 0.788555038313 -0.678305756174 -0.014728046864 -0.059236804815 -0.012737981820 -0.060766638784 0.799781533794 -0.688793543611
3.084485999000 0.786858102127 -0.679580742249 -0.014592382437 -0.059130781198 -0.012707401645 -0.060681528757 0.799472771692 -0.690392778897
3.085819111000 0.788155904161 -0.679816909166 -0.014568629636 -0.059179941320 -0.012524613305 -0.060490217897 0.798524138949 -0.689450218737
3.087152222000 0.787069461959 -0.679672399826 -0.014390533938 -0.058880713577 -0.012260682730 -0.060246709057 0.800942050360 -0.689384605602
3.088485333000 0.788090404084 -0.679774858897 -0.014342262813 -0.059000266962 -0.012091792308 -0.060046403351 0.798705009896 -0.687624903531
3.089818444000 0.787819646909 -0.680341474847 -0.014055746795 -0.058914421411 -0.011886451207 -0.060087009679 0.799859264375 -0.689365748327
3.091151555000 0.787001858769 -0.681288958327 -0.013983414278 -0.058818213955 -0.011923549079 -0.060123155627 0.798233259320 -0.690251749663
3.092484666000 0.786821017000 -0.680630112332 -0.013859926763 -0.058641650106 -0.011600080391 -0.059864407706 0.800114562153 -0.689393443955
3.093817777000 0.786522370270 -0.681780657538 -0.013765289722 -0.058852324543 -0.011672413507 -0.059906583837 0.798082009925 -0.692029194396
3.095150888000 0.785610580256 -0.681859954722 -0.013591411328 -0.058791010447 -0.011659272405 -0.059744928102 0.795945708579 -0.691361683312
3.096483999000 0.784144353908 -0.682920717144 -0.013498801959 -0.058445860485 -0.011208406140 -0.059735909873 0.800335765380 -0.690179575697
3.097817111000 0.785784298476 -0.682752188834 -0.013378244601 -0.058596560553 -0.011153341041 -0.059547230396 0.798142942983 -0.689949331313
3.099150222000 0.786349064886 -0.682284481355 -0.013259286715 -0.058650153456 -0.011254445222 -0.059339821086 0.795706540701 -0.689714789462
3.100483333000 0.785839081131 -0.683853987791 -0.013154618518 -0.058678846333 -0.010789198304 -0.059514143491 0.798623922451 -0.690564107762
3.101816444000 0.784575626222 -0.682576287764 -0.012940126590 -0.058641393508 -0.011018968678 -0.059397174888 0.796033419748 -0.692557288936
3.103149555000 0.784869546531 -0.684279809026 -0.012916178657 -0.058759079702 -0.010778514542 -0.059403927469 0.796458583002 -0.691298663840
3.104482666000 0.783819846627 -0.684911064141 -0.012908255807 -0.058576584176 -0.010473867808 -0.059303885802 0.797060975882 -0.690122691144
3.105815777000 0.784575680371 -0.684740501412 -0.012669415376 -0.058824541710 -0.010450839271 -0.059281708762 0.795437694667 -0.691566451025
3.107148888000 0.783672889875 -0.684963817060 -0.012683338346 -0.058535692598 -0.009978513768 -0.059178469568 0.799266493693 -0.689318955838
3.108481999000 0.782287227282 -0.686323309100 -0.012326582906 -0.058654099902 -0.009946165066 -0.059516423539 0.799129443344 -0.693355046765
3.109815111000 0.782825652902 -0.686460535925 -0.012460397456 -0.058618184603 -0.010005324618 -0.059151015882 0.794780315161 -0.690576712756
3.111148222000 0.782923989415 -0.687323881428 -0.012260008140 -0.058680640457 -0.009859185554 -0.059235394974 0.796010536124 -0.691611834422
3.112481333000 0.781916323038 -0.687593914013 -0.012331531479 -0.058813698917 -0.009780146161 -0.059215489005 0.794276336390 -0.691254664924
3.113814444000 0.783364070034 -0.687656525126 -0.012034782864 -0.058778877146 -0.009563101273 -0.059201401119 0.795878598872 -0.691716462785
3.115147555000 0.780808266651 -0.687248603474 -0.012153302270 -0.058719958699 -0.009542494455 -0.059441387096 0.796859014434 -0.692313648499
3.116480666000 0.779542607020 -0.688133130140 -0.011986314341 -0.058891967474 -0.009417498763 -0.059399055092 0.795761093005 -0.692349426936
3.117813777000 0.781968859239 -0.688667792919 -0.011672918407 -0.058889389615 -0.009298821787 -0.059535793219 0.795700148418 -0.694328523498
3.119146888000 0.780224112500 -0.687636992712 -0.011772410460 -0.058920338034 -0.009273670010 -0.059430876850 0.795167824771 -0.692758994074
3.120479999000 0.780445638023 -0.689122118978 -0.011794000940 -0.058862446353 -0.008971166593 -0.059311509308 0.795239807436 -0.691330380889
3.121813111000 0.777583279729 -0.690839781440 -0.011743814015 -0.059389700795 -0.009371547747 -0.059746935736 0.791792311523 -0.695864328030
3.123146222000 0.779655559548 -0.688134899757 -0.011470932999 -0.059202623845 -0.009044766992 -0.059625970857 0.793996976059 -0.692474094232
3.124479333000 0.778942490878 -0.689033918990 -0.011492006636 -0.059515379932 -0.009032485197 -0.059938596432 0.793418017865 -0.696094228526
3.125812444000 0.777366539298 -0.690468870689 -0.011653741579 -0.059341519246 -0.008763620742 -0.059848596952 0.793432387526 -0.693550535101
3.127145555000 0.778409872092 -0.692211808308 -0.011591112407 -0.059807017201 -0.008644347066 -0.059891596878 0.793372466052 -0.693686203140
3.128478666000 0.778522388801 -0.690742146745 -0.011476330549 -0.060038775244 -0.008902942265 -0.059960934467 0.791402526127 -0.695247811630
3.129811777000 0.776221659007 -0.692333951210 -0.011693580507 -0.059795989055 -0.008916553121 -0.060326875717 0.790326607557 -0.696028427988
3.131144888000 0.777413273429 -0.690471787651 -0.011527174817 -0.059837899381 -0.008658133339 -0.060168520989 0.793052750149 -0.694782570002
3.132477999000 0.775730226985 -0.693125482148 -0.011673727194 -0.060050245231 -0.008550996490 -0.060482753428 0.791935029737 -0.695029526106
3.133811111000 0.775646543226 -0.692439575898 -0.011627042103 -0.060229350539 -0.008902210477 -0.060520589677 0.788701107072 -0.696600917692
3.135144222000 0.777211200987 -0.693039197201 -0.011605859319 -0.060261384306 -0.008506317516 -0.060449430835 0.791016998785 -0.694632353845
3.136477333000 0.773922874678 -0.694030323593 -0.011678747341 -0.060349436794 -0.008698605801 -0.060916543677 0.789587161855 -0.696546610526
3.137810444000 0.773619219211 -0.695305896468 -0.011849670715 -0.060569071995 -0.008712675469 -0.060904492811 0.789060898251 -0.695750615834
3.139143555000 0.775425374158 -0.696068454945 -0.011739597804 -0.060851812038 -0.008630605436 -0.061119260101 0.789889468844 -0.697644974264
3.140476666000 0.773922541862 -0.695768550972 -0.012000388918 -0.060834926748 -0.008814013129 -0.061168187653 0.787324782358 -0.697456476862
3.141809777000 0.774037094708 -0.695294037925 -0.011842769729 -0.061095669224 -0.008709268547 -0.061262327242 0.788094761164 -0.696040732459
3.143142888000 0.773258221249 -0.696626382177 -0.011953535377 -0.061237216046 -0.008745948530 -0.061534095016 0.787936037853 -0.697828625964
3.144475999000 0.774596587376 -0.696243496107 -0.011931767650 -0.061374119315 -0.009028560633 -0.061546814941 0.786016071618 -0.698335828439
3.145809111000 0.773774373288 -0.698394525781 -0.012177363256 -0.061369962705 -0.008795060251 -0.061758697150 0.787392311142 -0.697599796481
3.147142222000 0.770655524704 -0.698418018996 -0.012263668317 -0.061366499201 -0.008937971590 -0.061932224749 0.786600805353 -0.698314315551
3.148475333000 0.774134885597 -0.694625373507 -0.012008422276 -0.061528000584 -0.009162203992 -0.062040790980 0.785627679337 -0.698659444386
3.149808444000 0.771266880129 -0.699301162821 -0.012475209272 -0.061702125219 -0.009253657882 -0.062343594133 0.786492112324 -0.698930140830
3.151141555000 0.771987487158 -0.697621321365 -0.012580009923 -0.061846040086 -0.009273810051 -0.062335302105 0.784934328404 -0.698803225470
3.152474666000 0.768570610057 -0.699863486042 -0.012822987342 -0.061837327825 -0.009416458897 -0.062809047987 0.785429862371 -0.699522253993
3.153807777000 0.771445770207 -0.700165932057 -0.012756620618 -0.062087242709 -0.009440058636 -0.062547171723 0.784342563375 -0.699256543988
3.155140888000 0.771705663018 -0.699857524019 -0.012841900655 -0.062184512061 -0.009584813722 -0.062798382464 0.783834097994 -0.701374646232
3.156473999000 0.770971061673 -0.697591339914 -0.012892411111 -0.062185654512 -0.009932299624 -0.062923280165 0.782914366733 -0.701794066221
3.157807111000 0.768279151004 -0.702459346455 -0.013512452604 -0.062472154240 -0.009948288752 -0.063385271306 0.782326762253 -0.701893387909
3.159140222000 0.771781687127 -0.699801229212 -0.013293276301 -0.062495794434 -0.010104646475 -0.063057798407 0.782181877047 -0.701625239177
3.160473333000 0.770750043480 -0.703691302881 -0.013630080388 -0.062758470263 -0.010203749636 -0.063528760099 0.782536656321 -0.701867317695
3.161806444000 0.770308270038 -0.702580802176 -0.013644169769 -0.062784004770 -0.010394729104 -0.063507885685 0.782136254936 -0.702542940853
3.163139555000 0.770873574455 -0.702311050517 -0.013783305900 -0.062754894118 -0.010612656127 -0.063518713108 0.781039527666 -0.703031469314
3.164472666000 0.766711310736 -0.704206785009 -0.014370081979 -0.062807213198 -0.010946566896 -0.063789978060 0.780089064886 -0.703594974823
3.165805777000 0.768444239046 -0.702610942303 -0.014235521179 -0.062992849048 -0.011284974968 -0.063974719039 0.778828900644 -0.704867713399
3.167138888000 0.769205245337 -0.707297090285 -0.014802206691 -0.063149540997 -0.011334195924 -0.064049615666 0.778316769357 -0.703881037711
3.168471999000 0.764798048869 -0.704038827437 -0.015057327271 -0.062786979445 -0.011700971289 -0.064231876651 0.778218483368 -0.705601859701
3.169805111000 0.766709842032 -0.705134106778 -0.015085653797 -0.063090378161 -0.011933835775 -0.064330481160 0.777304836398 -0.705824079380
3.171138222000 0.766564021873 -0.706859767215 -0.015245788979 -0.063055542698 -0.011979817698 -0.064355321481 0.778030386858 -0.705229189901
3.172471333000 0.766043622910 -0.708344143162 -0.015628343041 -0.063177161332 -0.012133931948 -0.064486014940 0.777970410440 -0.706269334316
3.173804444000 0.764717029294 -0.708972224177 -0.015894456575 -0.063183314230 -0.012556569436 -0.064712782086 0.777744087880 -0.707467392216
3.175137555000 0.763862068073 -0.705196829103 -0.016052472417 -0.062918661339 -0.012853232481 -0.064458730279 0.776891430476 -0.707436979628
3.176470666000 0.764566612396 -0.707220962298 -0.016110538986 -0.063118896121 -0.013119228210 -0.064719151869 0.777029591956 -0.708941415664
3.177803777000 0.764621093801 -0.705433146044 -0.016349496756 -0.062932459551 -0.013450055803 -0.064607446609 0.775287517871 -0.708657574673
3.179136888000 0.764912865221 -0.710161830840 -0.016837459849 -0.063241704491 -0.013681346229 -0.064704566041 0.773406051640 -0.709597562952
3.180469999000 0.764090124359 -0.706580793300 -0.016792931705 -0.062976378382 -0.014130453040 -0.064671585273 0.774317827460 -0.711227079652
3.181803111000 0.763577582974 -0.713034883005 -0.017357096102 -0.063245282510 -0.014122836608 -0.064677603552 0.773178422241 -0.710540252665
3.183136222000 0.760601991666 -0.712096918427 -0.017621417368 -0.062962556093 -0.014396326432 -0.064857724816 0.774527223013 -0.710350684514
3.184469333000 0.762597831592 -0.712717279066 -0.017821115313 -0.063159129665 -0.014698757945 -0.064952908758 0.771624288356 -0.713743399808
3.185802444000 0.765617521294 -0.711094946470 -0.017706173326 -0.063053603258 -0.014885684156 -0.064711889311 0.773098623879 -0.713614500294
3.187135555000 0.763974655714 -0.711295433069 -0.017937671411 -0.062833846245 -0.015250184587 -0.064675087419 0.773880794833 -0.713699277371
3.188468666000 0.763814559447 -0.711898516010 -0.018282581565 -0.062673222713 -0.015301915352 -0.064578517730 0.773047273288 -0.712735318303
3.189801777000 0.762475927918 -0.712555360979 -0.018770503216 -0.062777850220 -0.015881379305 -0.064258246373 0.769543185515 -0.712609826914
3.191134888000 0.760211730335 -0.713056894123 -0.018790358955 -0.062576453171 -0.016138585353 -0.064724887160 0.770911046978 -0.716841419421
3.192467999000 0.762296029702 -0.711903066952 -0.018976387904 -0.062519023969 -0.016442283270 -0.064435618238 0.769968114846 -0.715079673905
3.193801111000 0.761931990620 -0.715286493653 -0.019244501612 -0.062435793002 -0.016318160993 -0.064456186673 0.772493204491 -0.714254825254
3.195134222000 0.760774894371 -0.718108871462 -0.019668060477 -0.062509346211 -0.016636289627 -0.064525014876 0.771371417325 -0.715721411469
3.196467333000 0.760936544596 -0.713630266045 -0.019653515036 -0.062033743219 -0.016990250077 -0.064228293051 0.770948295204 -0.715836200519
3.197800444000 0.759436208181 -0.714398470733 -0.020134057748 -0.061751970984 -0.017405093551 -0.063919273122 0.768694379999 -0.714992409810
3.199133555000 0.761638988183 -0.716543238622 -0.020114549711 -0.062088190596 -0.017657713018 -0.063937811543 0.768391508846 -0.718248405638
3.200466666000 0.758494653827 -0.718752230495 -0.020667810067 -0.061770695883 -0.017914634097 -0.063883557654 0.767322525877 -0.718107049325
3.201799777000 0.757263805097 -0.717720533248 -0.020855386411 -0.061561018606 -0.018228902946 -0.063616235355 0.767569352905 -0.717411811409
3.203132888000 0.759269566918 -0.716750576940 -0.020718336214 -0.061370223269 -0.018487535662 -0.063373081808 0.766911209692 -0.717839002705
3.204465999000 0.759198000677 -0.718006807248 -0.021025109405 -0.061388861032 -0.018653382378 -0.063517180207 0.767490393833 -0.720486005035
3.205799111000 0.759101816668 -0.719911105471 -0.021337591389 -0.061205950686 -0.018714130063 -0.063275338050 0.765875489267 -0.718103044429
3.207132222000 0.760200737283 -0.716788821306 -0.021173539587 -0.060849685364 -0.018899803670 -0.062890478376 0.767193515037 -0.719628471683
3.208465333000 0.758387733422 -0.719566815703 -0.021732095749 -0.060859195018 -0.019446119941 -0.062932460236 0.764772527168 -0.722432762820
3.209798444000 0.757934476077 -0.720414569513 -0.022112152816 -0.060680876616 -0.019703071576 -0.062608479392 0.762545632505 -0.721483031943
3.211131555000 0.756218818930 -0.718599208723 -0.021935057513 -0.060258182488 -0.019941062679 -0.062656572951 0.765910321792 -0.724260757626
3.212464666000 0.754763499300 -0.721410384465 -0.022552260303 -0.060124633667 -0.020189067972 -0.062459551190 0.763806062155 -0.722769835617
3.213797777000 0.756145401020 -0.719416539459 -0.022406592890 -0.059977118306 -0.020592670302 -0.062009599048 0.761720312955 -0.724429591612
3.215130888000 0.758149234028 -0.719312233081 -0.022110545178 -0.059639414872 -0.020243053484 -0.061789851215 0.765724736997 -0.722781966950
3.216463999000 0.755695333789 -0.722791312154 -0.022744963494 -0.059733288620 -0.020800983916 -0.061510959198 0.759962692600 -0.723310867831
3.217797111000 0.755760447309 -0.720669553866 -0.022658919324 -0.059237912233 -0.020816024865 -0.061486416917 0.763038933401 -0.724516003351
3.219130222000 0.753898758079 -0.722591964877 -0.022840580733 -0.059270211714 -0.021249032368 -0.061466678301 0.763080540736 -0.727939082579
3.220463333000 0.755396732238 -0.723398418738 -0.022805477877 -0.058884195105 -0.021210669553 -0.061259081390 0.763452742232 -0.727407502144
3.221796444000 0.753761965284 -0.722272997275 -0.023178005377 -0.058789144870 -0.021689585453 -0.060875246117 0.760890705514 -0.728672093474
3.223129555000 0.753009955487 -0.725774273929 -0.023477813025 -0.058590223656 -0.021765127779 -0.060892131831 0.760658569810 -0.729460651233
3.224462666000 0.756315171114 -0.721733537153 -0.023212723915 -0.058110819128 -0.021842876477 -0.060036892537 0.759657973936 -0.727559298550
3.225795777000 0.754069255568 -0.723932894636 -0.023515211024 -0.058014207332 -0.021908370887 -0.060347612732 0.761912660833 -0.729715157442
3.227128888000 0.754802066047 -0.723137204686 -0.023407416333 -0.057682856196 -0.021985791325 -0.059671530087 0.759781827753 -0.727702290500
3.228461999000 0.750330677836 -0.725701077202 -0.024115976574 -0.057551068466 -0.022399807515 -0.059672039472 0.759241558029 -0.731230034462
3.229795111000 0.752043012510 -0.724068258867 -0.024064871698 -0.056985891791 -0.022353852843 -0.059259752277 0.758360261676 -0.728295455932
3.231128222000 0.752412977738 -0.725926402328 -0.023989535122 -0.057280520649 -0.022388089167 -0.059112254651 0.760369143081 -0.729606904116
3.232461333000 0.752657868276 -0.725294140887 -0.023902241558 -0.056755598201 -0.022368538038 -0.058846376769 0.761576254880 -0.728094566985
3.233794444000 0.752091773143 -0.727181693388 -0.024153774192 -0.056647288307 -0.022646655392 -0.058654612731 0.758764420072 -0.730752587578
3.235127555000 0.752223476044 -0.727520347428 -0.024432552530 -0.056512278007 -0.022912031348 -0.058316100712 0.755539722740 -0.731160114417
3.236460666000 0.751771441147 -0.726962435689 -0.024371137023 -0.056348383853 -0.023134349725 -0.057957356952 0.754539197707 -0.734158618401
3.237793777000 0.753859396872 -0.729044040688 -0.024240273813 -0.056137270399 -0.023008242227 -0.057955690210 0.756237168243 -0.734093340527
3.239126888000 0.751683978055 -0.728558113472 -0.024232531215 -0.055909856982 -0.023094848592 -0.058011399505 0.760332752010 -0.736875229726
3.240459999000 0.754404118688 -0.728659803069 -0.024220234846 -0.055716093339 -0.023055460738 -0.057600702038 0.757714784359 -0.735645302227
3.241793111000 0.752052533147 -0.729784421040 -0.024573478310 -0.055432348645 -0.023347210412 -0.057292605657 0.755053163337 -0.736255311979
3.243126222000 0.751734593878 -0.729799436296 -0.024446389185 -0.055095456941 -0.023189122695 -0.056994041868 0.757800028209 -0.736303623396
3.244459333000 0.751599306378 -0.730657778914 -0.024760681518 -0.054916277087 -0.023371314996 -0.056900026004 0.758906247101 -0.735350925737
3.245792444000 0.749924082543 -0.729965479953 -0.024544819896 -0.054435627975 -0.023571978280 -0.056419172104 0.755821742197 -0.736844484618
3.247125555000 0.750266103698 -0.730317383910 -0.024669855463 -0.054382007969 -0.023769940848 -0.056204980080 0.753996531038 -0.738183961907
3.248458666000 0.749711071104 -0.730487803391 -0.024769940904 -0.054105704228 -0.023778236151 -0.055835108975 0.755473366851 -0.738115090357
3.249791777000 0.749743509945 -0.732521551896 -0.024620077922 -0.054056721531 -0.023822187959 -0.055687970047 0.754063912085 -0.738667702727
3.251124888000 0.750334460335 -0.731649481883 -0.024814078465 -0.053753558647 -0.023973893785 -0.055579625482 0.753660418856 -0.741532401598
3.252457999000 0.749758258757 -0.732398594721 -0.024647148065 -0.053605709754 -0.023866020939 -0.055191047899 0.752917931974 -0.739018812312
3.253791111000 0.750611202607 -0.733675510810 -0.024731534299 -0.053320849790 -0.023930778653 -0.054912989411 0.753347105752 -0.740739003665
3.255124222000 0.748073911705 -0.732832450483 -0.024578734880 -0.052919954645 -0.023876873635 -0.054729857744 0.753698327232 -0.739558349636
3.256457333000 0.750026290237 -0.734013572475 -0.024606960277 -0.052722249064 -0.023839819605 -0.054586337518 0.755344411630 -0.741070995065
3.257790444000 0.748052970497 -0.733154809773 -0.024718615005 -0.052620776130 -0.024038116252 -0.054228782727 0.753270741854 -0.741360875669
3.259123555000 0.749982613484 -0.735350526853 -0.024651982226 -0.052411743891 -0.023983097805 -0.053909828453 0.752288301650 -0.742585578492
3.260456666000 0.747760227776 -0.733233586213 -0.024613395763 -0.052038894262 -0.023970623689 -0.053649368290 0.752892555893 -0.742433376000
3.261789777000 0.748972050056 -0.737652940245 -0.024803699857 -0.052162327431 -0.024093616054 -0.053464546552 0.751264549687 -0.743572535722
3.263122888000 0.747697908227 -0.737492885806 -0.024751301830 -0.051878584495 -0.023970725537 -0.053340799007 0.753222247942 -0.742879309184
3.264455999000 0.748066554261 -0.736968374693 -0.024609812386 -0.051505291713 -0.023933592039 -0.053094784773 0.753293839537 -0.744231221752
3.265789111000 0.748126080636 -0.736997361116 -0.024711132502 -0.051525372920 -0.024213029201 -0.052828804763 0.750930934578 -0.745546756550
3.267122222000 0.746570755985 -0.736427976950 -0.024692817272 -0.051200845804 -0.024135110071 -0.052532768449 0.751492719372 -0.746225128015
3.268455333000 0.749774817734 -0.737719683945 -0.024594989436 -0.051141196212 -0.024096551861 -0.052219455293 0.750766213625 -0.747173881737
3.269788444000 0.749133871505 -0.735660277331 -0.024441579640 -0.050679539612 -0.023976183508 -0.051852112974 0.749878577319 -0.746718450173
3.271121555000 0.748213289307 -0.738172532875 -0.024476797718 -0.050703148050 -0.023976355860 -0.051894655046 0.750453148927 -0.747836545615
3.272454666000 0.746372466883 -0.737820091963 -0.024484881797 -0.050317904121 -0.024044538162 -0.051681789199 0.749810019811 -0.748871114440
3.273787777000 0.745425379019 -0.738343768514 -0.024434864414 -0.050198413520 -0.024103910872 -0.051423953372 0.750174646634 -0.748093523833
3.275120888000 0.747411081140 -0.738517708016 -0.024426599572 -0.050137269009 -0.024123345246 -0.051215671857 0.748592227220 -0.749955540840
3.276453999000 0.746304707726 -0.741226451573 -0.024427910377 -0.049897323994 -0.023980062411 -0.051037400241 0.748579664620 -0.749186143906
3.277787111000 0.744475136700 -0.742810843675 -0.024582938062 -0.049763714848 -0.024028022417 -0.050880269717 0.748468404492 -0.749085825119
3.279120222000 0.746342500204 -0.741102326982 -0.024381289690 -0.049405635243 -0.023899724698 -0.050608660778 0.748897286674 -0.749548194385
3.280453333000 0.747415895844 -0.741372174460 -0.024041903065 -0.049279332413 -0.023711177760 -0.050378418341 0.750114799499 -0.749174471659
3.281786444000 0.746834550524 -0.743032470532 -0.024290964448 -0.049111758260 -0.023808924450 -0.050149116871 0.747781964233 -0.751080861168
3.283119555000 0.742294731920 -0.742295331000 -0.024262310253 -0.048872911288 -0.023953162127 -0.050039452910 0.748577275504 -0.751560042230
3.284452666000 0.748130522077 -0.743188871276 -0.024082644507 -0.048778934639 -0.023598076671 -0.049801380373 0.747551061188 -0.750107519824
3.285785777000 0.747395944681 -0.745005493639 -0.023977618960 -0.048801402790 -0.023585184787 -0.049645107063 0.746983193613 -0.751363654714
3.287118888000 0.745366101711 -0.742828033134 -0.023914271885 -0.048200636640 -0.023773360911 -0.049371787711 0.747373965375 -0.751555577163
3.288451999000 0.746807700612 -0.742452084741 -0.023763356571 -0.048382629009 -0.023638325196 -0.049203831819 0.747131926010 -0.753903535962
3.289785111000 0.746947019152 -0.743966856101 -0.023747424015 -0.048175481995 -0.023550213017 -0.048835617295 0.745358047769 -0.752613406317
3.291118222000 0.745692057981 -0.744384188721 -0.023882121611 -0.047911702906 -0.023578455583 -0.048677042276 0.744842607843 -0.752275431919
3.292451333000 0.743699071380 -0.741413586513 -0.023605691883 -0.047455335106 -0.023512024037 -0.048477142742 0.745913513995 -0.753092656548
3.293784444000 0.744689486788 -0.743278313447 -0.023506051853 -0.047656450781 -0.023608060794 -0.048471654854 0.746085844550 -0.757289302586
3.295117555000 0.740659177333 -0.743659094432 -0.023543606939 -0.047166310381 -0.023450619864 -0.048172581832 0.746000873587 -0.753349912385
3.296450666000 0.742604418036 -0.746099343344 -0.023464932660 -0.047261222097 -0.023394671936 -0.048114498451 0.743933857750 -0.756032837175
3.297783777000 0.746151474981 -0.746734830449 -0.023445100804 -0.047146985899 -0.023449037800 -0.047960789322 0.744976743934 -0.757197937124
3.299116888000 0.742695540090 -0.747002808409 -0.023451202970 -0.046897457306 -0.023366104637 -0.047645394311 0.743135042264 -0.755994356962
3.300449999000 0.742989983431 -0.748324550475 -0.023186515556 -0.046819921186 -0.023049423240 -0.047808603522 0.748108827877 -0.757282073857
3.301783111000 0.745674027347 -0.747236975825 -0.023013323855 -0.046742714804 -0.022916950328 -0.047461803809 0.747754780649 -0.755327182740
3.303116222000 0.743044284777 -0.751035689197 -0.023357968111 -0.046515973431 -0.023303072143 -0.047187030410 0.740668214310 -0.757812222259
3.304449333000 0.743256136435 -0.750276955829 -0.023116573126 -0.046591393020 -0.023133396195 -0.047127339214 0.743796902650 -0.759940206036
3.305782444000 0.741956140485 -0.751984763514 -0.022942587691 -0.046398468011 -0.023132903114 -0.047050125339 0.744212720733 -0.759799463973
3.307115555000 0.739997086789 -0.753530278834 -0.023005917826 -0.046160316408 -0.022855032715 -0.046854102797 0.742806140864 -0.758796381690
3.308448666000 0.741262841513 -0.748165495718 -0.022758325228 -0.045811371887 -0.022828202727 -0.046595207408 0.744342678918 -0.758520565497
3.309781777000 0.742910549491 -0.751472950621 -0.022678174284 -0.045897403235 -0.022733989251 -0.046649608050 0.745502149591 -0.760357292868
3.311114888000 0.741496567134 -0.750431393658 -0.022627696443 -0.045705973634 -0.022659043080 -0.046280989001 0.742657295105 -0.759708629812
3.312447999000 0.739698587471 -0.751427975087 -0.022694761482 -0.045395370011 -0.022902234353 -0.046144677717 0.740064155925 -0.762476122218
3.313781111000 0.743109312942 -0.750264349981 -0.022542894713 -0.045497712832 -0.022578691199 -0.045856568316 0.741930565129 -0.759931300909
3.315114222000 0.739913072325 -0.755619268924 -0.022653255617 -0.045306031051 -0.022456997486 -0.045803849149 0.741749236092 -0.760954465969
3.316447333000 0.742266059870 -0.754429595375 -0.022253269997 -0.045345023811 -0.022400981001 -0.046051589950 0.745786407576 -0.764159789132
3.317780444000 0.740196467257 -0.754591735491 -0.022155086243 -0.045210646401 -0.022313094568 -0.045606199436 0.745482674967 -0.764677789217
3.319113555000 0.739440838894 -0.752381194460 -0.022148148247 -0.044902910538 -0.022604440178 -0.045341916352 0.741922250235 -0.766343672408
3.320446666000 0.739018149704 -0.757789989337 -0.022052643089 -0.044931732221 -0.022192709623 -0.045425551047 0.744364971847 -0.763936902579
3.321779777000 0.737262698803 -0.752397540615 -0.022066743209 -0.044706844692 -0.022413663349 -0.045164295791 0.737602583763 -0.766249914867
3.323112888000 0.740611306752 -0.757205998930 -0.021976450684 -0.044807337799 -0.021911747463 -0.045156116366 0.742689231214 -0.766111378848
3.324445999000 0.739772955359 -0.756834911096 -0.021942061850 -0.044668242084 -0.021882794336 -0.045050876251 0.742170655930 -0.765402884374
3.325779111000 0.738425230599 -0.754106320730 -0.021868486572 -0.044237125291 -0.022089782216 -0.044793992477 0.740178350159 -0.764613379608
3.327112222000 0.737417337856 -0.756916451380 -0.021607767866 -0.044204010469 -0.021706552884 -0.044683607983 0.743590549225 -0.765582320994
3.328445333000 0.736999632321 -0.760826557584 -0.021852990749 -0.044502503651 -0.022032823093 -0.044771624628 0.740757247967 -0.766685973621
3.329778444000 0.741283382870 -0.755892423459 -0.021314946004 -0.044183961869 -0.021682816105 -0.044501586538 0.742833869505 -0.767051712482
3.331111555000 0.741440857363 -0.758103358374 -0.021278521409 -0.044294798027 -0.021757273968 -0.044378885611 0.737515864317 -0.767136181936
3.332444666000 0.743086668791 -0.759902074198 -0.020928342878 -0.044218543452 -0.021211527401 -0.044399574122 0.745611010528 -0.771449159554
3.333777777000 0.739193405421 -0.760771828639 -0.021265751612 -0.044137196251 -0.021347486391 -0.044085547293 0.738660486957 -0.767384287183
3.335110888000 0.736861966698 -0.760752769237 -0.021247378115 -0.044109461729 -0.021496860202 -0.044216673273 0.739259429002 -0.771787524961
3.336443999000 0.732042566256 -0.761145488531 -0.021385816777 -0.043898268794 -0.021687682163 -0.044129628598 0.738455123425 -0.773981221735
3.337777111000 0.735957436283 -0.760322039942 -0.020956577712 -0.043983524882 -0.020954895620 -0.044077903736 0.743542754709 -0.770054371696
3.339110222000 0.736759048633 -0.758210302765 -0.020885167940 -0.043641223719 -0.021268465940 -0.043478328422 0.737989495545 -0.770804518431
3.340443333000 0.738998909353 -0.757030589984 -0.020583832240 -0.043543788643 -0.020998151613 -0.043642479344 0.740329161287 -0.771675688962
3.341776444000 0.734374344549 -0.759881630253 -0.020700471447 -0.043438617005 -0.020986658395 -0.043700718868 0.742445948557 -0.773020601493
3.343109555000 0.735325471268 -0.760406311749 -0.020692790355 -0.043529435590 -0.020884873393 -0.043466311604 0.738381941419 -0.771247658500
3.344442666000 0.737439187827 -0.761842520823 -0.020355192935 -0.043517418385 -0.020689185496 -0.043579951112 0.742033804211 -0.773595308908
3.345775777000 0.734394339047 -0.760332267591 -0.020248300597 -0.043350945329 -0.020672092489 -0.043257901004 0.739935069985 -0.772079026992
3.347108888000 0.735664930946 -0.762745304481 -0.020455435839 -0.043300714579 -0.020477585209 -0.043323579171 0.741360744075 -0.772693761682
3.348441999000 0.738184392828 -0.759663228662 -0.020160169804 -0.043205593460 -0.020589541536 -0.042891498874 0.734252517246 -0.771536952659
3.349775111000 0.737733039922 -0.760185273367 -0.020014030575 -0.043078915843 -0.020499658012 -0.042837201659 0.737709156516 -0.771741466558
3.351108222000 0.735413391860 -0.761631307304 -0.019943464271 -0.043092388153 -0.020382959749 -0.042999766478 0.740408796662 -0.773840459794
3.352441333000 0.735640425258 -0.760692095883 -0.019686908117 -0.042875443398 -0.020048744832 -0.042874004356 0.741814909256 -0.772473213601
3.353774444000 0.733786884085 -0.761769119648 -0.019779366843 -0.043077730487 -0.020198687057 -0.043050932381 0.742633058513 -0.775754695457
3.355107555000 0.733657410281 -0.763237933171 -0.019797486652 -0.043014127550 -0.020085996595 -0.042672335499 0.737207168518 -0.772362166655
3.356440666000 0.734296027383 -0.763016834732 -0.019623357492 -0.042888025847 -0.019884646951 -0.042773400265 0.741439302789 -0.776374225959
3.357773777000 0.731827499661 -0.762653306856 -0.019699012359 -0.042718826365 -0.019967681183 -0.042709802827 0.741810270264 -0.775630532012
3.359106888000 0.732660351321 -0.762783760073 -0.019653116876 -0.042849506195 -0.019783202246 -0.042632857475 0.740370465826 -0.774934192083
3.360439999000 0.730626657387 -0.762557732848 -0.019480760986 -0.042729531789 -0.019904085286 -0.042583382798 0.741341270271 -0.777508738714
3.361773111000 0.732599321530 -0.763953755319 -0.019394747256 -0.042785769108 -0.019671538502 -0.042480283407 0.739380729453 -0.776140038103
3.363106222000 0.732038012195 -0.762787039146 -0.019378105942 -0.042887704989 -0.019662902294 -0.042426189198 0.740020531569 -0.775548068772
3.364439333000 0.729976909385 -0.765188347580 -0.019283874888 -0.042877446091 -0.019627647650 -0.042526317246 0.740346431352 -0.777808368548
3.365772444000 0.729994359975 -0.763896625897 -0.019374681206 -0.042753590598 -0.019572626148 -0.042257160942 0.738812178895 -0.776819197297
3.367105555000 0.730762726960 -0.765385187644 -0.019288886140 -0.042784285926 -0.019380938619 -0.042174901090 0.739461067335 -0.775939188784
3.368438666000 0.729713986032 -0.766256458299 -0.019294105403 -0.042790907033 -0.019404862841 -0.042323522668 0.738194981024 -0.778135699691
3.369771777000 0.729062296073 -0.766762602847 -0.019222721523 -0.042573427215 -0.019447661675 -0.042216019978 0.739037621083 -0.778996769808
3.371104888000 0.729803470227 -0.766587980387 -0.019181651709 -0.042595077506 -0.019147130280 -0.042122136479 0.740725987830 -0.776483784409
3.372437999000 0.729628123882 -0.766570298119 -0.018979196134 -0.042697928639 -0.019180111810 -0.042064588081 0.738444516967 -0.777149098028
3.373771111000 0.729802561928 -0.767968394775 -0.018978806297 -0.042653063317 -0.019164212123 -0.042153518399 0.737595210915 -0.779936844043
3.375104222000 0.727940251675 -0.766831679640 -0.019113657154 -0.042487233641 -0.019083219090 -0.042038555576 0.739850581174 -0.778434744770
3.376437333000 0.730501437590 -0.768599802998 -0.018871518972 -0.042572057734 -0.019071854070 -0.042061908755 0.737720094059 -0.780893824439
3.377770444000 0.728148368253 -0.768559023826 -0.018968528147 -0.042664281179 -0.018963718378 -0.042015294859 0.738930663611 -0.779033724619
3.379103555000 0.727593577995 -0.767815932072 -0.018778385561 -0.042479254851 -0.019035076630 -0.041872210820 0.738671747750 -0.779782879332
3.380436666000 0.726640385912 -0.767587365303 -0.018958394473 -0.042316020304 -0.018950592259 -0.041810416707 0.738278295519 -0.779142710715
3.381769777000 0.726540082477 -0.768761137451 -0.018956305924 -0.042618031252 -0.018916630334 -0.041884943416 0.738153095894 -0.780044156298
3.383102888000 0.727023557423 -0.768186920158 -0.018941025509 -0.042418377009 -0.019060543278 -0.041794372955 0.735888453853 -0.781533532772
3.384435999000 0.725737335211 -0.768392515207 -0.018881407105 -0.042529318324 -0.018941114216 -0.041775817882 0.737238122278 -0.781230125331
3.385769111000 0.725202425706 -0.769554556664 -0.018916164484 -0.042490941269 -0.018886571631 -0.041806694760 0.738228420835 -0.781183937218
3.387102222000 0.726102096430 -0.769055827018 -0.018813174142 -0.042420476393 -0.018838067092 -0.041703098194 0.737030957456 -0.779727647339
3.388435333000 0.724757514406 -0.770133765291 -0.019053913209 -0.042339216334 -0.018810535895 -0.041641801039 0.736439387348 -0.780228005701
3.389768444000 0.724976834988 -0.769213824288 -0.019152411988 -0.042364098038 -0.018941521515 -0.041538915413 0.736253695416 -0.781079062060
3.391101555000 0.724411855823 -0.771488219468 -0.019158630317 -0.042386441632 -0.018971608912 -0.041547063566 0.735676621750 -0.779521931090
3.392434666000 0.723240492817 -0.771499212799 -0.019113054508 -0.042260608488 -0.018879648355 -0.041652325572 0.735743421736 -0.781020856477
3.393767777000 0.722438999544 -0.770946827677 -0.019277861834 -0.042185621208 -0.018843780586 -0.041600260531 0.736412805180 -0.781654659832
3.395100888000 0.723196957391 -0.770746942695 -0.019133805355 -0.042137040270 -0.018861549641 -0.041425902108 0.736292007199 -0.780183388101
3.396433999000 0.722033486538 -0.771559703588 -0.019366996408 -0.042322785196 -0.019050197621 -0.041461867786 0.734195951697 -0.783269171445
3.397767111000 0.722584106195 -0.773212026117 -0.019499234432 -0.042122982703 -0.018984077993 -0.041434228343 0.734006867660 -0.781396495041
3.399100222000 0.722636173706 -0.772391784574 -0.019324232987 -0.042111558446 -0.018990395531 -0.041609608122 0.734514605832 -0.782786791075
3.400433333000 0.722076305839 -0.771699086779 -0.019433947058 -0.042090904152 -0.018966299633 -0.041348012900 0.732812039207 -0.782074705023
3.401766444000 0.717841372298 -0.773539185451 -0.019647550008 -0.041855875383 -0.019125408435 -0.041351607542 0.733094591626 -0.780317569984
3.403099555000 0.720298919602 -0.773440381410 -0.019812736968 -0.042035356378 -0.019096609353 -0.041275948580 0.731994915236 -0.783492486407
3.404432666000 0.718614979348 -0.773622947169 -0.019766545598 -0.041817403096 -0.019224253375 -0.041239935208 0.731077888558 -0.782914984459
3.405765777000 0.721199704361 -0.773931540286 -0.019565563158 -0.041855008127 -0.019114583549 -0.041334045303 0.732297590235 -0.784210277024
3.407098888000 0.718671940856 -0.774643014644 -0.019894388999 -0.041702070476 -0.019313170077 -0.041271492745 0.732535529532 -0.784135343534
3.408431999000 0.720593505189 -0.770947161008 -0.019895548165 -0.041853547672 -0.019422260510 -0.041113564760 0.729830563273 -0.785542588760
3.409765111000 0.717116736283 -0.775731044641 -0.020165901134 -0.041643047698 -0.019328200351 -0.041004098836 0.728543408825 -0.782908178567
3.411098222000 0.716137807786 -0.775935121097 -0.020143117658 -0.041486573702 -0.019527154012 -0.041041626118 0.730253090221 -0.783631121883
3.412431333000 0.714335589083 -0.775382836416 -0.020198930395 -0.041589879259 -0.019629035138 -0.041156503117 0.729988634130 -0.786071071298
3.413764444000 0.715889916595 -0.775395173667 -0.020452056458 -0.041341954007 -0.019454865319 -0.040802919070 0.730686610201 -0.779718518931
3.415097555000 0.718758790309 -0.773334690411 -0.020061529518 -0.041210853824 -0.019450211383 -0.040838101501 0.730814544342 -0.784573010490
3.416430666000 0.717291856791 -0.779443217886 -0.020350821352 -0.041475791443 -0.019620393421 -0.040988832560 0.729798065388 -0.785890114177
3.417763777000 0.716203046427 -0.775655753494 -0.020598661339 -0.041157320193 -0.019764141457 -0.040653360130 0.724827910586 -0.786062028889
3.419096888000 0.715784349482 -0.780720339849 -0.020691791192 -0.041163123034 -0.019838448603 -0.040679488300 0.724952148222 -0.784886644869
3.420429999000 0.715896493256 -0.777688112836 -0.020907208559 -0.041050755662 -0.019877121729 -0.040497754369 0.726947491304 -0.784705070252
3.421763111000 0.715721643196 -0.777274816864 -0.020954067399 -0.041137135039 -0.020082070763 -0.040620883994 0.726206285413 -0.787286574029
3.423096222000 0.716445893275 -0.778558654281 -0.020793138646 -0.040850492306 -0.019822667406 -0.040631474570 0.728391246262 -0.785122510062
3.424429333000 0.714000309208 -0.777573816733 -0.020905412166 -0.040686491660 -0.020139021123 -0.040642042110 0.726504067117 -0.789779737802
3.425762444000 0.713595895393 -0.778694387808 -0.020975498625 -0.040511551369 -0.020047873474 -0.040323573433 0.728519696230 -0.786042482631
3.427095555000 0.710396447180 -0.778135139969 -0.021382572178 -0.040540327578 -0.020547181482 -0.040115198022 0.720131859334 -0.786543830585
3.428428666000 0.709133067916 -0.780935359049 -0.021323167872 -0.040285802686 -0.020347718834 -0.040057453818 0.723847652411 -0.787570234908
3.429761777000 0.713390497569 -0.781784887812 -0.021423795345 -0.040459187005 -0.020442810540 -0.040125763365 0.723285242312 -0.789935368528
3.431094888000 0.710258827917 -0.783163551863 -0.021485245457 -0.039936561670 -0.020413518346 -0.039986333181 0.722276584287 -0.785749312839
3.432427999000 0.711079535058 -0.782277968827 -0.021428416607 -0.039827589139 -0.020561982564 -0.039876577226 0.721652376738 -0.787736740747
3.433761111000 0.711908770005 -0.779583664633 -0.021374774105 -0.039700184867 -0.020312121527 -0.039538578528 0.721960083450 -0.783473227469
3.435094222000 0.708305986700 -0.781833214855 -0.021557312220 -0.039856648075 -0.020626508419 -0.039769709648 0.722889754273 -0.790520405189
3.436427333000 0.712935935786 -0.778157332405 -0.021572830441 -0.039551571056 -0.020625589119 -0.039271152601 0.717670032950 -0.788680947384
3.437760444000 0.703900899214 -0.783406511002 -0.021971426171 -0.039378707935 -0.020944888740 -0.039420898543 0.720772636721 -0.787245970697
3.439093555000 0.710726412888 -0.783799555569 -0.021671749641 -0.039576020914 -0.020735255871 -0.039435120656 0.721187721890 -0.792601286763
3.440426666000 0.708995441726 -0.784054234959 -0.021851956903 -0.039157698489 -0.020906709295 -0.039200532468 0.719850549914 -0.790139360806
3.441759777000 0.709260560016 -0.781664865532 -0.022201684108 -0.038906933299 -0.021031288658 -0.039113476418 0.716479220651 -0.792682371882
3.443092888000 0.708672290477 -0.788468575050 -0.022183352187 -0.038874355896 -0.020982823537 -0.038939295179 0.715063837143 -0.789642431870
3.444425999000 0.704722131094 -0.783236077432 -0.022141305593 -0.038547115238 -0.021223536415 -0.038646264001 0.713991755307 -0.790491381560
3.445759111000 0.706456645416 -0.787363632572 -0.022214025695 -0.038741663437 -0.021239824960 -0.038724204091 0.715318572924 -0.792595753005
3.447092222000 0.704877013644 -0.785102938562 -0.022463674831 -0.038229864977 -0.021329966918 -0.038496091106 0.713694716323 -0.793288879696
3.448425333000 0.706425225255 -0.787042489486 -0.022159408480 -0.038167461884 -0.021277282094 -0.038546225309 0.716274060909 -0.792965646762
3.449758444000 0.705778969642 -0.786897989953 -0.022182637597 -0.038097047704 -0.021440302961 -0.038340997770 0.713494083014 -0.796394220116
3.451091555000 0.706328006157 -0.782993529814 -0.022244822000 -0.037757920589 -0.021485657121 -0.037897984579 0.710605450305 -0.794303360179
3.452424666000 0.704833646651 -0.784420287573 -0.022544775401 -0.037611085905 -0.021378693120 -0.037823476140 0.711764419018 -0.792199795833
3.453757777000 0.704652049620 -0.786627524844 -0.022326784435 -0.037437621018 -0.021521577280 -0.037739239766 0.714525291503 -0.796656123045
3.455090888000 0.703495197486 -0.785385757667 -0.022574936541 -0.037248919725 -0.021617699496 -0.037697515688 0.713733857264 -0.797270628178
3.456423999000 0.703342590491 -0.783233403512 -0.022275965363 -0.037184418457 -0.021319421373 -0.037642534330 0.715481519024 -0.794004126788
3.457757111000 0.700681601064 -0.787430587336 -0.022408150300 -0.037037031711 -0.021629999667 -0.037422206970 0.714163538381 -0.796322067052
3.459090222000 0.702353465835 -0.792322231386 -0.022541628327 -0.037099851132 -0.021505044510 -0.037363682321 0.712861113631 -0.793490186421
3.460423333000 0.705464977827 -0.784714279514 -0.022423359749 -0.036648036818 -0.021467936742 -0.037093244172 0.714739836583 -0.796881411144
3.461756444000 0.701450342576 -0.787639478159 -0.022519042427 -0.036682265924 -0.021619762480 -0.036944564481 0.710386070692 -0.797537222989
3.463089555000 0.701304960528 -0.789102207479 -0.022692746610 -0.036530757571 -0.021884075111 -0.036904574538 0.707326984175 -0.799978108067
3.464422666000 0.705142308902 -0.788693248029 -0.022527929231 -0.036266354480 -0.021619039997 -0.036829360193 0.711069393968 -0.798740047827
3.465755777000 0.700306655823 -0.789912861221 -0.022779008340 -0.036107512520 -0.022036737824 -0.036498341603 0.705519805566 -0.802606553761
3.467088888000 0.699416452560 -0.792665963925 -0.022701723301 -0.036101784219 -0.021867449190 -0.036509954526 0.708277121208 -0.801502095569
3.468421999000 0.701035410921 -0.790995486539 -0.022693217011 -0.035741811531 -0.021745070240 -0.036282103994 0.710739836498 -0.801033345338
3.469755111000 0.704355308756 -0.790534800650 -0.022465444265 -0.035993403850 -0.021766232089 -0.036147173199 0.707888943394 -0.802838374088
3.471088222000 0.698886083421 -0.791748616858 -0.022731447765 -0.035354380203 -0.021827212663 -0.035887482461 0.705882095434 -0.803079505450
3.472421333000 0.698343754523 -0.793846353487 -0.022773331515 -0.035649061013 -0.021852620758 -0.035968709170 0.707852919095 -0.802173974424
3.473754444000 0.696969825661 -0.791492158720 -0.022722475987 -0.034911117913 -0.021915936236 -0.035545783087 0.706747547613 -0.801403205431
3.475087555000 0.701681014853 -0.795398285051 -0.022566985393 -0.035205448357 -0.021971079328 -0.035601868084 0.703106491119 -0.802801960182
3.476420666000 0.696923925971 -0.791991454013 -0.022434949038 -0.034760647667 -0.021769847828 -0.035343437365 0.708879965409 -0.802290721048
3.477753777000 0.698653556624 -0.795230864342 -0.022599437776 -0.034712281128 -0.021784626740 -0.035328427051 0.707052983664 -0.801930829824
3.479086888000 0.691834819928 -0.793164043936 -0.022958888070 -0.034696713676 -0.022050489196 -0.035196457325 0.703491921414 -0.805639041621
3.480419999000 0.701325281951 -0.794605891100 -0.022710393560 -0.034479472234 -0.021826953980 -0.034986818128 0.703652245845 -0.804511989048
3.481753111000 0.695787953627 -0.795187027412 -0.022773680044 -0.034222570345 -0.022049402380 -0.034749422213 0.702018470150 -0.802171861489
3.483086222000 0.694400006075 -0.798515689340 -0.022983962573 -0.034233693082 -0.021984592147 -0.034715733167 0.700380722451 -0.804667592042
3.484419333000 0.699328151382 -0.795505763280 -0.022310164989 -0.034180069525 -0.021765165682 -0.034391775041 0.703210918460 -0.805122300782
3.485752444000 0.698121635098 -0.797149686841 -0.022413660001 -0.034052841629 -0.021793673930 -0.034490658578 0.703400365633 -0.806344023786
3.487085555000 0.695002230044 -0.797795723653 -0.022580356610 -0.033813097918 -0.021800199221 -0.034158944086 0.703724056733 -0.803815401248
3.488418666000 0.698335430118 -0.796096647788 -0.022327127662 -0.033606417267 -0.021887097103 -0.034097104494 0.701589850990 -0.810421374998
3.489751777000 0.698127801632 -0.796819303278 -0.022398879128 -0.033789970333 -0.021752832398 -0.034042857846 0.702604615393 -0.808934635016
3.491084888000 0.699645415152 -0.797825767648 -0.022453639975 -0.033534341382 -0.021686686717 -0.033951080082 0.701960202498 -0.809316615646
3.492417999000 0.696660329345 -0.800450510385 -0.022681948954 -0.033454651159 -0.021710056530 -0.033908950265 0.699269522752 -0.811027445440
3.493751111000 0.694669993762 -0.798069145371 -0.022303659168 -0.032843790353 -0.021652141044 -0.033504763361 0.701616599276 -0.807703022281
3.495084222000 0.693584945540 -0.798082177268 -0.022204780295 -0.033087680874 -0.021794449549 -0.033579949643 0.699681837193 -0.809081597186
3.496417333000 0.694782887231 -0.795976315105 -0.022529505533 -0.032638188983 -0.021749527454 -0.033071656107 0.699157684706 -0.809252178528
3.497750444000 0.695525055837 -0.798924262240 -0.022200119087 -0.032447162275 -0.021661246702 -0.033114468364 0.699430258583 -0.812130758312
3.499083555000 0.694555545780 -0.799639872188 -0.022374065936 -0.032189649989 -0.021630423675 -0.032833607858 0.698353807174 -0.811175441541
3.500416666000 0.691672458041 -0.801905214610 -0.022607081603 -0.032256686761 -0.021725105035 -0.032905205028 0.697641173652 -0.815525947368
3.501749777000 0.693819353085 -0.800828822354 -0.022271004538 -0.031964598860 -0.021453596303 -0.032551133887 0.698569179502 -0.813897618843
3.503082888000 0.694447639030 -0.801272586221 -0.022188886915 -0.032080108761 -0.021533156508 -0.032381060847 0.696993493556 -0.812700938384
3.504415999000 0.692318782681 -0.801111325725 -0.022176265789 -0.031628104406 -0.021615688709 -0.032320448162 0.697173872460 -0.814852631684
3.505749111000 0.694354855050 -0.801176876829 -0.021960722267 -0.031604568866 -0.021488258290 -0.032244168228 0.696048583231 -0.815993895925
3.507082222000 0.691929669514 -0.800284583971 -0.021932725050 -0.031838102960 -0.021284820351 -0.032172725659 0.699231067823 -0.816303657203
3.508415333000 0.694799788365 -0.802402599358 -0.021967295273 -0.031250827067 -0.021428422032 -0.031965402148 0.694722142911 -0.815790199975
3.509748444000 0.691593423576 -0.801802525037 -0.021762642524 -0.031455018941 -0.021417883565 -0.031782419996 0.696061688767 -0.817566926491
3.511081555000 0.693351009084 -0.803505954884 -0.021689287005 -0.031083534021 -0.021415513886 -0.031723318220 0.697490664099 -0.817076781145
3.512414666000 0.689195012788 -0.801593652751 -0.021911774495 -0.031016065220 -0.021469330437 -0.031457903309 0.694122500919 -0.819861762454
3.513747777000 0.686470032671 -0.803444566690 -0.022112771196 -0.031028198020 -0.021495605697 -0.031363968073 0.693184880181 -0.818404092480
3.515080888000 0.690315522637 -0.806876381297 -0.021490963280 -0.030833679661 -0.021167059874 -0.031332638518 0.694393831501 -0.820800085213
3.516413999000 0.686600661137 -0.802511961425 -0.021866402698 -0.030495900011 -0.021174135243 -0.031068802884 0.692033233357 -0.819621328507
3.517747111000 0.686751348499 -0.804968898854 -0.021891421943 -0.030580842031 -0.021344605348 -0.030790489992 0.691483697720 -0.819543993657
3.519080222000 0.691594552512 -0.805134075080 -0.021571314934 -0.030625190948 -0.020967463878 -0.030809181929 0.694406623407 -0.818236863120
3.520413333000 0.687050497474 -0.806698489504 -0.021546907827 -0.030210317516 -0.021184502791 -0.030738281794 0.693883259517 -0.819395999975
3.521746444000 0.687603863761 -0.806120493025 -0.021387814721 -0.029941275128 -0.021094898413 -0.030566923833 0.690982982347 -0.820144609639
3.523079555000 0.690101802910 -0.805391274932 -0.021451159649 -0.030015605043 -0.021083027288 -0.030355919751 0.688803329345 -0.821523622006
3.524412666000 0.685799166597 -0.806231035444 -0.021153019437 -0.029974324799 -0.021105238558 -0.030257581853 0.688691999837 -0.825867414637
3.525745777000 0.686579087072 -0.805524419952 -0.021406244632 -0.029737656414 -0.020934139542 -0.029986762579 0.693226728407 -0.823388699511
3.527078888000 0.686356114925 -0.805903875007 -0.021105483924 -0.029447394903 -0.020899448412 -0.029822360883 0.686735937617 -0.823367040888
3.528411999000 0.689412929226 -0.802601272362 -0.020978620951 -0.029330657265 -0.020838785467 -0.029819757058 0.689699089265 -0.822562100733
3.529745111000 0.687333182638 -0.804772631013 -0.020714147833 -0.029531004542 -0.020784304740 -0.029971460308 0.692379007568 -0.822209100135
3.531078222000 0.687089250397 -0.806006437366 -0.021090362149 -0.029128329957 -0.020546430102 -0.029487995271 0.690860263621 -0.823632731801
3.532411333000 0.686342409801 -0.807965852559 -0.020915592123 -0.029017436751 -0.020561450717 -0.029408884871 0.688211775561 -0.826054796328
3.533744444000 0.684613085958 -0.809326036017 -0.020890926023 -0.029271495613 -0.020455493049 -0.029335943959 0.687896665531 -0.823629641052
3.535077555000 0.685020740263 -0.809521163067 -0.021127076612 -0.028977547612 -0.020626103334 -0.029200008924 0.686416567747 -0.828932152210
3.536410666000 0.684837481638 -0.809332821346 -0.020585727063 -0.028894191815 -0.020358603987 -0.029170461833 0.688347835017 -0.824394600039
3.537743777000 0.685942116531 -0.808346057915 -0.020433636786 -0.028468209139 -0.020181288304 -0.028889403129 0.687444408391 -0.823171337433
3.539076888000 0.686145878941 -0.809558243071 -0.020572180281 -0.028442148507 -0.020273251036 -0.028823863477 0.685669256180 -0.829820880585
3.540409999000 0.684216391632 -0.810168369004 -0.020254829653 -0.028286773425 -0.020315807644 -0.028609660470 0.683155426978 -0.828263242169
3.541743111000 0.685602530891 -0.810888695855 -0.020316868973 -0.028351023749 -0.020311210476 -0.028642926034 0.684343239494 -0.827985982474
3.543076222000 0.684586622101 -0.811355764288 -0.020328757791 -0.028005044108 -0.020215045459 -0.028359354365 0.683674735689 -0.827847423167
3.544409333000 0.684163390618 -0.810003227570 -0.020451037683 -0.028276290857 -0.020132559644 -0.028323682565 0.685252685646 -0.828363555179
3.545742444000 0.682680588577 -0.814117144619 -0.020050992766 -0.027890480457 -0.019970053541 -0.028328535698 0.687689888776 -0.830273586336
3.547075555000 0.681966371127 -0.811924287225 -0.020289644511 -0.028032208888 -0.020159986089 -0.027960542619 0.683495817674 -0.829280612885
3.548408666000 0.682250362686 -0.812081424549 -0.019896518406 -0.027593745908 -0.020017787345 -0.027864832529 0.684688291024 -0.828718319217
3.549741777000 0.683530918301 -0.813341519149 -0.019789189690 -0.027869296538 -0.019890577649 -0.027849583246 0.682218580779 -0.827098990079
3.551074888000 0.682241128630 -0.812212331783 -0.019758105358 -0.027242895936 -0.019779447528 -0.027694054266 0.683132019902 -0.830916964541
3.552407999000 0.682508249118 -0.813978115476 -0.019601017819 -0.027581099103 -0.019742735737 -0.027586662290 0.680768522154 -0.829610676004
3.553741111000 0.680714484030 -0.813351393632 -0.019694818520 -0.027407946640 -0.019918723203 -0.027452305242 0.676701319979 -0.830794340928
3.555074222000 0.681438881304 -0.813091101579 -0.019384352917 -0.027166512562 -0.019534078843 -0.027431169183 0.683972241214 -0.833984321763
3.556407333000 0.682206303404 -0.813988707779 -0.019679765013 -0.027322621203 -0.019550055884 -0.027284565326 0.679770361039 -0.832468505245
3.557740444000 0.683392509205 -0.815307929147 -0.019173321569 -0.027099100784 -0.019580375338 -0.027140272194 0.677348204922 -0.834034967159
3.559073555000 0.679493095599 -0.814207792692 -0.019422825285 -0.026969763360 -0.019543811752 -0.026994073965 0.679494718240 -0.832992431260
3.560406666000 0.680479117078 -0.818540967250 -0.019392147440 -0.026570025003 -0.019390730240 -0.026831168324 0.678597851402 -0.832269991447
3.561739777000 0.680867940232 -0.817719327087 -0.019016379535 -0.026693344870 -0.019476729839 -0.027123695002 0.677492467936 -0.837396926018
3.563072888000 0.679454993475 -0.819591568132 -0.019166545051 -0.026800304137 -0.019270895113 -0.026778198184 0.677502039652 -0.835283549568
3.564405999000 0.677815818328 -0.818123346939 -0.019360892981 -0.026166005926 -0.019495661157 -0.026593682121 0.671613207705 -0.832915803444
3.565739111000 0.676057374253 -0.816957523249 -0.018786607983 -0.026439041888 -0.019332782960 -0.026653722037 0.677695251333 -0.839639482381
3.567072222000 0.681449580460 -0.818821290929 -0.018793031264 -0.026709057674 -0.019237417722 -0.026456525326 0.674450821077 -0.837998034841
3.568405333000 0.682559399084 -0.816319153907 -0.018769407469 -0.025977712881 -0.018986016085 -0.026219120581 0.673418519297 -0.835588457369
3.569738444000 0.679556678157 -0.817329044422 -0.018548662376 -0.026045729417 -0.019039143575 -0.026312982567 0.677236969281 -0.840662874412
3.571071555000 0.676564221303 -0.819255337575 -0.018943467013 -0.025804657126 -0.019042363825 -0.026065880779 0.673968515297 -0.839088306424
3.572404666000 0.681755677395 -0.819678475717 -0.018578743573 -0.025826948098 -0.018957651374 -0.025978262676 0.677809261731 -0.837261208878
3.573737777000 0.682656721670 -0.819913825718 -0.018590646573 -0.025998949686 -0.018750023624 -0.026067587907 0.677979978566 -0.844267175054
3.575070888000 0.679738068027 -0.821517572455 -0.018409263142 -0.025545469824 -0.018755144739 -0.026033001434 0.677984357003 -0.840055171548
3.576403999000 0.678561880158 -0.819081205855 -0.018215883628 -0.025627903214 -0.018830011884 -0.025687604090 0.672597590589 -0.840893957628
3.577737111000 0.675896912143 -0.819400670810 -0.018650923039 -0.025476893970 -0.018926414201 -0.025753481361 0.668644265323 -0.842959388817
3.579070222000 0.675673381729 -0.824322663109 -0.018277172435 -0.025710695492 -0.018801325782 -0.025572569367 0.672255156619 -0.840942419319
3.580403333000 0.678818010032 -0.821727640485 -0.018075183980 -0.025562764425 -0.018469191209 -0.025407916689 0.672906217286 -0.840052411262
3.581736444000 0.679732010157 -0.821692849827 -0.017906006382 -0.025469785627 -0.018462423506 -0.025552479162 0.675048080274 -0.846132903536
3.583069555000 0.674751453191 -0.820959665907 -0.017620452433 -0.025123047409 -0.018257461590 -0.025313969489 0.671590852883 -0.842275275739
3.584402666000 0.676832847415 -0.825297781324 -0.017962482625 -0.024949314913 -0.018362417758 -0.025227617894 0.671675078197 -0.843668554805
3.585735777000 0.679058558513 -0.823435978152 -0.017832606764 -0.024855383393 -0.018303033918 -0.025146421197 0.671755978278 -0.844839114679
3.587068888000 0.673325069247 -0.824133611554 -0.018045160268 -0.024658926362 -0.018178324072 -0.025002355592 0.668512196345 -0.844022646038
3.588401999000 0.676919942139 -0.822835987000 -0.017728809437 -0.024672954381 -0.018155318801 -0.024922582069 0.670848916236 -0.843792500127
3.589735111000 0.679316101039 -0.826462113330 -0.017585802227 -0.024714450734 -0.018058510482 -0.024860784099 0.670020661867 -0.842501243947
3.591068222000 0.679528346426 -0.823036847714 -0.017420166371 -0.024529464028 -0.018074405265 -0.024765806669 0.665227752560 -0.844839753936
3.592401333000 0.679213067192 -0.821389744502 -0.017541569075 -0.024754856876 -0.017974398913 -0.024727206293 0.669513003913 -0.845898355010
3.593734444000 0.681082093282 -0.825942047247 -0.017231671764 -0.024496667231 -0.017863136215 -0.024493195105 0.666311365987 -0.847037451555
3.595067555000 0.679022220007 -0.828789485593 -0.017236539566 -0.024375649052 -0.017592498021 -0.024510548500 0.670121305649 -0.848103891731
3.596400666000 0.674152434385 -0.824913300166 -0.017213549254 -0.024101120427 -0.017578496564 -0.024276174961 0.669128419521 -0.846510542588
3.597733777000 0.674585255346 -0.826869580515 -0.017344559399 -0.024329514078 -0.017522748813 -0.024507586620 0.668765223451 -0.849708234112
3.599066888000 0.676258909598 -0.824170480776 -0.017083918879 -0.024222121519 -0.017603000294 -0.024186126602 0.666370545909 -0.850611114524
3.600399999000 0.680622420355 -0.825634844268 -0.016736562107 -0.024184123664 -0.017202397969 -0.024187002082 0.666651154786 -0.849030747681
3.601733111000 0.676276225602 -0.826673899359 -0.016724423019 -0.024000137864 -0.017321437488 -0.024031722813 0.667219837229 -0.851608376763
3.603066222000 0.676189458769 -0.826519994635 -0.016950952751 -0.023914362000 -0.017239763503 -0.023929635779 0.667374243834 -0.850099592318
3.604399333000 0.680525157798 -0.823351713752 -0.016517538113 -0.024168040291 -0.017170787971 -0.024011763697 0.669234095430 -0.852043927891
3.605732444000 0.673020998534 -0.829012486758 -0.016819800457 -0.023946811643 -0.017266718873 -0.023984673053 0.667277403508 -0.850908274364
3.607065555000 0.674278782322 -0.824643215679 -0.016319957519 -0.023791833821 -0.017173948321 -0.023694482001 0.664815755147 -0.851997160131
3.608398666000 0.674750817175 -0.825427078528 -0.016378188512 -0.023911011034 -0.017033966041 -0.023700363286 0.663900039571 -0.856871399675
3.609731777000 0.674423881194 -0.825652622366 -0.016254570091 -0.023455108308 -0.016858347243 -0.023695283891 0.665017384183 -0.853996485804
3.611064888000 0.676312237569 -0.824834299399 -0.015961530169 -0.023639249168 -0.016804866795 -0.023780412789 0.667577282744 -0.858393971973
3.612397999000 0.679266672770 -0.826537399279 -0.016335333399 -0.023733498504 -0.016740844649 -0.023647906858 0.667112180638 -0.857662379248
3.613731111000 0.673660858638 -0.827711073991 -0.016295435434 -0.023510738514 -0.016820474679 -0.023328880783 0.663017235225 -0.857095574184
3.615064222000 0.676969291501 -0.829864570657 -0.015844420330 -0.023443891495 -0.016814705831 -0.023342904904 0.664400551900 -0.857345767295
3.616397333000 0.675442159295 -0.829878496502 -0.015750435710 -0.023344980949 -0.016574096341 -0.023418216744 0.662337739941 -0.856791212976
3.617730444000 0.675052320377 -0.831078657150 -0.016132199726 -0.023491082937 -0.016623551353 -0.023111695386 0.665380438964 -0.857378615173
3.619063555000 0.675826346313 -0.827828110447 -0.015610255918 -0.023281299971 -0.016292846238 -0.023182967671 0.665404864826 -0.857814156690
3.620396666000 0.669059373061 -0.832131439744 -0.015860212810 -0.023057531075 -0.016515400283 -0.023061736264 0.663494225283 -0.858089684534
3.621729777000 0.679323397395 -0.831229464667 -0.015635069696 -0.023374947943 -0.016396955651 -0.022996633438 0.663062591591 -0.859661836404
3.623062888000 0.676109716102 -0.833806693566 -0.015609410907 -0.023479195526 -0.016124314609 -0.023119601435 0.665349047333 -0.860653534087
3.624395999000 0.678002290252 -0.831865889006 -0.015428079708 -0.023043247554 -0.016231984759 -0.022883898637 0.663804120037 -0.861846435420
3.625729111000 0.664239802627 -0.828050113314 -0.015775014232 -0.022917319088 -0.016177194631 -0.022856390590 0.664573756871 -0.861683179959
3.627062222000 0.672672453232 -0.828180247420 -0.015514751208 -0.022934392959 -0.016228347482 -0.022808265824 0.661551343352 -0.862919516011
3.628395333000 0.672834536740 -0.828687225481 -0.015485843656 -0.022924124769 -0.016074997102 -0.022668591572 0.666360282272 -0.861954805066
3.629728444000 0.671448561187 -0.834481379130 -0.015504135265 -0.022761993564 -0.015950549264 -0.022637942563 0.663956746278 -0.861220961683
3.631061555000 0.673110856928 -0.830726005408 -0.015017617541 -0.023091054812 -0.015853958864 -0.022625665599 0.665385991615 -0.861247947590
3.632394666000 0.674110640000 -0.832244061799 -0.015221950227 -0.022896605096 -0.015739157931 -0.022639635008 0.665176862326 -0.863068634175
3.633727777000 0.671079851329 -0.824878306616 -0.015248832839 -0.022572242705 -0.015620426938 -0.022412778858 0.663673569239 -0.862522752406
3.635060888000 0.669558635634 -0.830740151048 -0.015113324246 -0.022808319077 -0.015754998143 -0.022369047528 0.666981915692 -0.864118307550
3.636393999000 0.673370596107 -0.832741033870 -0.014997908674 -0.022573580851 -0.015606392849 -0.022495019245 0.663186389837 -0.866173171839
3.637727111000 0.669552956768 -0.833209778339 -0.015154416932 -0.022512832052 -0.015623146816 -0.022270160883 0.663731222049 -0.865188087902
3.639060222000 0.671066827053 -0.834445868456 -0.015105828586 -0.022707610936 -0.015534785141 -0.022390319500 0.663407987972 -0.865581948228
3.640393333000 0.668483392561 -0.833309163546 -0.014743720300 -0.022639171208 -0.015497620030 -0.022271313582 0.663933741992 -0.864213128855
3.641726444000 0.670787956831 -0.834348208731 -0.014876172988 -0.022487913076 -0.015256959053 -0.022073968823 0.662430314304 -0.863575101331
3.643059555000 0.667547759983 -0.831537838308 -0.014739537659 -0.022250650940 -0.015382586485 -0.022043359318 0.665777042864 -0.866504439027
3.644392666000 0.670423295865 -0.832491997271 -0.014729546952 -0.022596189175 -0.015224525546 -0.022139850878 0.664466396312 -0.867429181448
3.645725777000 0.665145904734 -0.833585057415 -0.015041671646 -0.022094844994 -0.015322223524 -0.021903927750 0.662774028642 -0.866646104875
3.647058888000 0.666369304866 -0.832104419937 -0.014575375149 -0.022211687992 -0.015269516396 -0.021837641871 0.661229427094 -0.868235657666
3.648391999000 0.669173800298 -0.835691067417 -0.014476387377 -0.022304233697 -0.015165438592 -0.021903977134 0.663379665877 -0.868107596773
3.649725111000 0.664710302459 -0.836006441352 -0.014681512292 -0.022120912268 -0.015279993899 -0.021661522706 0.660065956820 -0.865483177354
3.651058222000 0.665491133738 -0.832445398474 -0.014724291173 -0.021872083198 -0.015093844055 -0.021695314140 0.661956500005 -0.866117540676
3.652391333000 0.665869753498 -0.834535704005 -0.014483911853 -0.022006779643 -0.014991935930 -0.021772775935 0.661077736128 -0.866502330455
3.653724444000 0.666452873415 -0.837334468051 -0.014707558460 -0.022298065171 -0.015032520449 -0.021674117454 0.662731124807 -0.870876986841
3.655057555000 0.662752953453 -0.834167091321 -0.014657773345 -0.021726207092 -0.014897005861 -0.021568896918 0.662030193723 -0.868602326496
3.656390666000 0.665632228090 -0.837528163954 -0.014555554943 -0.022176571957 -0.014999579642 -0.021488825870 0.658921795888 -0.867266854491
3.657723777000 0.662590421967 -0.835522683180 -0.014431670231 -0.021902262488 -0.014863725755 -0.021420248122 0.660176269161 -0.866574472464
3.659056888000 0.663673831977 -0.835743148886 -0.014572229675 -0.021880484606 -0.014805680026 -0.021404947241 0.657530326319 -0.866347665006
3.660389999000 0.665015177680 -0.837623288274 -0.014473470718 -0.021647172587 -0.014937591155 -0.021320080364 0.656371403719 -0.872312555207
3.661723111000 0.664303020255 -0.835140770765 -0.014298605936 -0.021693584820 -0.014838500621 -0.021301136343 0.662671578551 -0.872154108495
3.663056222000 0.659880842056 -0.836260577725 -0.014511424124 -0.021679860829 -0.014808000085 -0.021148063448 0.661058192260 -0.866651353766
3.664389333000 0.663024290017 -0.837479733042 -0.014570031956 -0.021417294810 -0.014727809865 -0.021094098451 0.657897882559 -0.868073287863
3.665722444000 0.658492057040 -0.838822081036 -0.014580753324 -0.021259952265 -0.014816442208 -0.020933026260 0.656239463037 -0.866772356934
3.667055555000 0.660153900613 -0.839000223928 -0.014421085084 -0.021381688832 -0.014801908964 -0.020925435082 0.654775046398 -0.865777830267
3.668388666000 0.659383787817 -0.838416960973 -0.014669148003 -0.021538729292 -0.014816925052 -0.021017559470 0.656199045853 -0.871091637985
3.669721777000 0.659381560965 -0.840012598517 -0.014689553232 -0.021293086597 -0.014670399878 -0.020833054056 0.657134809009 -0.869090690678
3.671054888000 0.658696538896 -0.840676207616 -0.014374450301 -0.021235073896 -0.014631146399 -0.020820552186 0.659754789227 -0.866933488831
3.672387999000 0.658003078149 -0.838553476879 -0.014709187309 -0.021182713655 -0.014493325143 -0.020758614609 0.657810448649 -0.867576748146
3.673721111000 0.658025339798 -0.840708342994 -0.014659051578 -0.021095492380 -0.014782378078 -0.020748258403 0.651768088873 -0.870724210477
3.675054222000 0.657807365009 -0.840722565001 -0.014826060510 -0.021251202710 -0.014723764180 -0.020772787740 0.653574553521 -0.875157566998
3.676387333000 0.655923100333 -0.838669245407 -0.014550927080 -0.020847812628 -0.014617685501 -0.020541742009 0.657141850885 -0.872940310816
3.677720444000 0.654881784130 -0.841033065457 -0.014437601006 -0.021014633004 -0.014592017899 -0.020516521977 0.657587537562 -0.869660351260
3.679053555000 0.655165877568 -0.843180201746 -0.014820468820 -0.021123514620 -0.014630132150 -0.020631431262 0.653829900196 -0.872891038900
3.680386666000 0.655605993435 -0.840215273907 -0.014545557806 -0.020533658294 -0.014488941892 -0.020419862041 0.654258090982 -0.873899991814
3.681719777000 0.654594261006 -0.843646560457 -0.014491356845 -0.020627440399 -0.014535871989 -0.020348964746 0.650836721252 -0.865506925448
3.683052888000 0.655061781520 -0.843168497633 -0.014613741207 -0.020745126333 -0.014510748587 -0.020278405282 0.651719870377 -0.867986613823
3.684385999000 0.652563504774 -0.842648911149 -0.014705058188 -0.020403119022 -0.014345131493 -0.020106237240 0.651892001991 -0.867640830976
3.685719111000 0.653589813719 -0.843349099547 -0.014606058491 -0.020540221997 -0.014555417166 -0.020231278548 0.650496830895 -0.875427441688
3.687052222000 0.651796477856 -0.843679180157 -0.014786178768 -0.020367270126 -0.014501715003 -0.020004930056 0.649716130930 -0.869571819645
3.688385333000 0.651924005607 -0.842557674305 -0.014618646656 -0.020196460450 -0.014443947646 -0.019974602260 0.648868892992 -0.870014343749
3.689718444000 0.650617469948 -0.844604572830 -0.014924854939 -0.020327139410 -0.014475174210 -0.019949617333 0.645618758842 -0.871954155948
3.691051555000 0.650074332164 -0.844564200521 -0.014608755403 -0.019993311693 -0.014544633770 -0.019934031007 0.646921741326 -0.875291131145
3.692384666000 0.651175251670 -0.845169148356 -0.014731130860 -0.020180473660 -0.014290073586 -0.019603082124 0.653275813452 -0.861723887674
3.693717777000 0.649779282977 -0.843375822126 -0.014760895684 -0.019982872007 -0.014601811543 -0.019610264102 0.643096476773 -0.872628411007
3.695050888000 0.649199810815 -0.845213410367 -0.014943119036 -0.019912900795 -0.014398258688 -0.019638518072 0.644445036855 -0.871473949390
3.696383999000 0.651576747700 -0.844668118233 -0.014517220883 -0.019841082312 -0.014423687010 -0.019548081572 0.645367314458 -0.872912050771
3.697717111000 0.648775749036 -0.845223260050 -0.014779534056 -0.019589728897 -0.014534965296 -0.019411768816 0.636898920206 -0.877002021214
3.699050222000 0.647831577622 -0.848157363497 -0.014783100650 -0.019569101394 -0.014520376116 -0.019708716631 0.644021005322 -0.879937587616
3.700383333000 0.646352029079 -0.842454861288 -0.014539302056 -0.019278040180 -0.014297901404 -0.019352613430 0.647242885034 -0.867954518668
3.701716444000 0.650186609578 -0.845544635428 -0.014904495471 -0.019507690751 -0.014359873924 -0.019128233758 0.641979229141 -0.872481043955
3.703049555000 0.648947107551 -0.846456143269 -0.014891135025 -0.019499845285 -0.014441971624 -0.019160395658 0.643343669057 -0.872359279253
3.704382666000 0.644732244289 -0.847535691244 -0.014546484494 -0.019264164550 -0.014332120915 -0.019334739667 0.647000745309 -0.880674658851
3.705715777000 0.642481021278 -0.849044278319 -0.015025157980 -0.019221429229 -0.014299534816 -0.019036381631 0.640111180273 -0.875765603905
3.707048888000 0.638923318103 -0.848773823564 -0.014757488671 -0.018903166878 -0.014234369631 -0.018796683207 0.638134135046 -0.866214382977
3.708381999000 0.638463090460 -0.849402826514 -0.014828339968 -0.018885991904 -0.014462086470 -0.018807185270 0.636189160009 -0.877694645886
3.709715111000 0.643132855010 -0.851029568244 -0.014830550118 -0.018677063727 -0.014372007775 -0.018911566407 0.635074058831 -0.876921977863
3.711048222000 0.644064635146 -0.847301701939 -0.014421244036 -0.018771448102 -0.014346216077 -0.018836660015 0.638858333940 -0.877680229587
3.712381333000 0.641741247439 -0.843633391202 -0.014813882322 -0.018490858703 -0.014337491627 -0.018579633573 0.635289937833 -0.878418196535
3.713714444000 0.639346771155 -0.846142566904 -0.015153550942 -0.018265031912 -0.014151450982 -0.018443155806 0.633694511664 -0.874394399957
3.715047555000 0.638485342804 -0.851479993849 -0.014615621222 -0.018154303866 -0.014218382660 -0.018554094179 0.636424082241 -0.877796939385
3.716380666000 0.642947523198 -0.853867231704 -0.015041410945 -0.018271355129 -0.014044990483 -0.018509828627 0.635712169109 -0.875661376499
3.717713777000 0.641861271638 -0.851710087972 -0.015010363445 -0.018249884544 -0.014120165797 -0.018082033583 0.628535423264 -0.867750469250
3.719046888000 0.638076472013 -0.848899779669 -0.014705281126 -0.017670036242 -0.014056777806 -0.018152057543 0.633561466273 -0.874527471766
3.720379999000 0.640212956733 -0.850845942681 -0.014654609286 -0.017879745193 -0.014017984860 -0.018036351817 0.633120450653 -0.877488682311
3.721713111000 0.636538032232 -0.851076895265 -0.014891027274 -0.018044493354 -0.014113457945 -0.018106755653 0.632535818807 -0.873343370455
3.723046222000 0.638164810538 -0.852084610218 -0.014633706260 -0.017827328052 -0.014307463673 -0.018067832425 0.630221467959 -0.879196420623
3.724379333000 0.634622929620 -0.855679319125 -0.014711135883 -0.017484329192 -0.014090486433 -0.018057597962 0.629780809277 -0.881498462605
3.725712444000 0.637508524005 -0.849268559867 -0.014480249884 -0.017619236317 -0.014118849437 -0.017675416676 0.622891322905 -0.879321170735
3.727045555000 0.632403887437 -0.848693287493 -0.014651163783 -0.017563471893 -0.014085927416 -0.017611228482 0.627383322873 -0.875686116690
3.728378666000 0.638187147977 -0.847184486878 -0.014910938472 -0.017128325955 -0.014141739461 -0.017723332059 0.629884658538 -0.882634294911
3.729711777000 0.637463638820 -0.856183051947 -0.014716948193 -0.017384014906 -0.013917721818 -0.017588156675 0.626598132183 -0.880866973731
3.731044888000 0.631918426226 -0.853279592752 -0.015079240990 -0.017336715478 -0.014201237416 -0.017460972401 0.622182269552 -0.884185316263
3.732377999000 0.633385339790 -0.855199857748 -0.014381178742 -0.017267890914 -0.013935924281 -0.017348209431 0.624618516894 -0.880675950249
3.733711111000 0.631627321216 -0.854235088996 -0.014722644362 -0.017365533063 -0.013796030097 -0.017385205331 0.625730785285 -0.882098405912
3.735044222000 0.636758159681 -0.851056951064 -0.014233606073 -0.016988877938 -0.013802182508 -0.017407811384 0.627814383975 -0.885067883245
3.736377333000 0.633402599036 -0.851417454350 -0.014862489461 -0.016714422304 -0.013829940890 -0.017008013730 0.621481268964 -0.881031405742
3.737710444000 0.633005024109 -0.851931500279 -0.014921024791 -0.016808229969 -0.013792001619 -0.016956621945 0.624153850028 -0.883371796079
3.739043555000 0.633933568861 -0.853816802488 -0.014767336092 -0.017060741481 -0.013799535865 -0.017166730103 0.621203015530 -0.885542960844
3.740376666000 0.630503007592 -0.849839573352 -0.014815484987 -0.016238313803 -0.013647112040 -0.016832874994 0.621490952501 -0.883770801878
3.741709777000 0.637253235724 -0.851027288374 -0.014503794904 -0.016529115887 -0.013490040461 -0.016750774824 0.623765015744 -0.885333537088
3.743042888000 0.636708747465 -0.854920133068 -0.014498440880 -0.016413433651 -0.013689358062 -0.016785388322 0.619501321010 -0.886652758670
3.744375999000 0.636855521986 -0.854657710271 -0.014725176575 -0.016834836366 -0.013681630052 -0.016704939273 0.618203851306 -0.889360737399
3.745709111000 0.631586252287 -0.858614057258 -0.014897133354 -0.016663396317 -0.013476310677 -0.016805210320 0.618954730905 -0.888541399754
3.747042222000 0.635270413907 -0.856827296973 -0.014758728454 -0.016535590840 -0.013765098421 -0.016507121760 0.614850000903 -0.885390879322
3.748375333000 0.636169125275 -0.854777335939 -0.014276969935 -0.016465621211 -0.013292149599 -0.016642803407 0.615271113707 -0.887807812386
3.749708444000 0.633947750128 -0.853556934860 -0.014727781019 -0.015703303645 -0.013376599857 -0.016352526675 0.615307589495 -0.887979088102
3.751041555000 0.633235094929 -0.854442696111 -0.014026387940 -0.016240903539 -0.013384753980 -0.016479838342 0.614863591722 -0.887132103096
3.752374666000 0.617831685466 -0.849647055883 -0.014761883674 -0.015627639527 -0.013564294675 -0.016077126706 0.617494069214 -0.888692902384
3.753707777000 0.632805675920 -0.852344479748 -0.014048673158 -0.015679202226 -0.013545942167 -0.016171185291 0.613410577459 -0.888872378909
3.755040888000 0.625739104193 -0.848797017837 -0.014554842546 -0.015349245133 -0.013080231564 -0.015949486734 0.614256000195 -0.884609097276
3.756373999000 0.632389472850 -0.854962999579 -0.014547691763 -0.015588753441 -0.013260321890 -0.015993027177 0.614698206565 -0.889008712742
3.757707111000 0.626035257601 -0.858632775256 -0.014494191240 -0.015617635610 -0.013147689600 -0.016055819223 0.615697318545 -0.889300214811
3.759040222000 0.627387203907 -0.858091332692 -0.013938337544 -0.015771301493 -0.012959794194 -0.016277640307 0.614593677834 -0.891755479141
3.760373333000 0.629449423111 -0.860840873956 -0.014458678620 -0.015682811746 -0.013143784733 -0.015705528993 0.612348464263 -0.888842126090
3.761706444000 0.631813643576 -0.861349188799 -0.014705464924 -0.015713712678 -0.013072871734 -0.015759995590 0.613418230862 -0.893648585843
3.763039555000 0.629884029245 -0.864967224343 -0.014907855853 -0.015314612553 -0.013143172977 -0.015734202296 0.609902871705 -0.895695468034
3.764372666000 0.629140066878 -0.865206919833 -0.014059716929 -0.015881574426 -0.013191722358 -0.015592571129 0.610366229938 -0.889780477418
3.765705777000 0.632182954670 -0.866036576284 -0.014208129655 -0.015823942318 -0.012977885661 -0.015668807761 0.612743961858 -0.892995340459
3.767038888000 0.628872484079 -0.859293299774 -0.013820181354 -0.015904536686 -0.012942220214 -0.015746197019 0.609156995424 -0.892876236476
3.768371999000 0.625945278292 -0.854213169768 -0.014256178332 -0.015427335599 -0.012776341263 -0.015234295933 0.609967470464 -0.893518495968
3.769705111000 0.627160702009 -0.855454949742 -0.013590580561 -0.015057194597 -0.012644142114 -0.015393558969 0.610067398725 -0.893318455775
3.771038222000 0.626988445995 -0.862512804742 -0.014451591474 -0.015119521939 -0.012760084719 -0.015331353563 0.605392445435 -0.894684383953
3.772371333000 0.618215567505 -0.856407367645 -0.013681841085 -0.014662654424 -0.012673185622 -0.015123220758 0.611050201054 -0.891926057540
3.773704444000 0.619837311292 -0.860098454865 -0.013701112982 -0.014748338645 -0.012530662770 -0.015145769411 0.605957643176 -0.893883414896
3.775037555000 0.622599979576 -0.854411872091 -0.014012537794 -0.015147090777 -0.012627181280 -0.015174615208 0.607626740886 -0.895897851292
3.776370666000 0.625203949553 -0.862108534658 -0.014217555544 -0.015582480174 -0.012400533495 -0.015150814607 0.606578817164 -0.900128930491
3.777703777000 0.619154617769 -0.855988200670 -0.013839130608 -0.014669379179 -0.012612716525 -0.015098699870 0.608677242724 -0.899583582541
3.779036888000 0.618627597118 -0.855745826566 -0.013602919616 -0.014960791162 -0.012290114689 -0.014905177959 0.602269814884 -0.900550528460
3.780369999000 0.617205202518 -0.859809881982 -0.013449233782 -0.014768020410 -0.012262925672 -0.014756344146 0.604268565038 -0.897468133056
3.781703111000 0.621651557952 -0.860773758488 -0.013497765695 -0.015307035492 -0.012183200902 -0.014814978811 0.608671691986 -0.901341960272
3.783036222000 0.620649094012 -0.861000316975 -0.013658495019 -0.014359106322 -0.012209360981 -0.014447156765 0.605720068078 -0.899727136396
3.784369333000 0.619515886794 -0.863165348420 -0.013317254780 -0.014223831465 -0.012268178360 -0.014573585377 0.605803667781 -0.896945387883
3.785702444000 0.623386451316 -0.862700346233 -0.013512142564 -0.013909419563 -0.012091147361 -0.014256197457 0.600442605348 -0.894875480448
3.787035555000 0.621658077117 -0.860372057602 -0.013568363341 -0.014626607655 -0.012135009293 -0.014365383534 0.601882372373 -0.898887248454
3.788368666000 0.618429354949 -0.861746534369 -0.013127184222 -0.013716741483 -0.011684751401 -0.014436477527 0.598950025900 -0.897498440712
3.789701777000 0.615782127504 -0.864519931419 -0.012797668727 -0.014635289990 -0.011999856976 -0.014122074360 0.605404001562 -0.899128071421
3.791034888000 0.619423703149 -0.862552162808 -0.013187766362 -0.013790025359 -0.011743279490 -0.014380528947 0.600813886368 -0.900891297837
3.792367999000 0.618555798099 -0.860196194862 -0.013762420533 -0.014267526799 -0.011869513866 -0.014110460032 0.603795258018 -0.903831796030
3.793701111000 0.619280084243 -0.865979293942 -0.013418681747 -0.014033528330 -0.011996488200 -0.014281492466 0.601798253281 -0.906702264624
3.795034222000 0.617468588688 -0.861957492115 -0.013225462786 -0.013901783771 -0.011671512186 -0.013897535241 0.598682441928 -0.907234012999
3.796367333000 0.614792709608 -0.860214144872 -0.013177252547 -0.013527739573 -0.011667640095 -0.013817047207 0.600536110320 -0.900378743748
3.797700444000 0.614169677255 -0.868893344858 -0.012415492693 -0.014184522878 -0.011557771429 -0.013954532279 0.609097719081 -0.903920472460
3.799033555000 0.612975769413 -0.865676372409 -0.012899393196 -0.014520767119 -0.011852426942 -0.013742378822 0.597004161176 -0.903009159202
3.800366666000 0.612265469186 -0.861966033454 -0.013264633616 -0.013648632806 -0.011320966168 -0.013451517523 0.599462981527 -0.901843040752
3.801699777000 0.611633642912 -0.867423065992 -0.012841769939 -0.014521750765 -0.011787546117 -0.013634910998 0.606158276362 -0.902774270479
3.803032888000 0.612487007737 -0.864752216594 -0.013193266752 -0.014039804052 -0.011511421978 -0.013292711859 0.599004343382 -0.905949968107
3.804365999000 0.614942185714 -0.862458123093 -0.011987045997 -0.013441677832 -0.011197859612 -0.013413821662 0.604584994108 -0.899872204647
3.805699111000 0.616171928232 -0.865114060568 -0.012080165031 -0.013553743754 -0.011418581000 -0.013249805616 0.602024941699 -0.904932128952
3.807032222000 0.613682773527 -0.864892593152 -0.011833273442 -0.013760607933 -0.010878369772 -0.013543683487 0.598759518156 -0.901082966107
3.808365333000 0.614146168672 -0.863518487599 -0.012148489878 -0.013978243221 -0.011286143492 -0.013224308265 0.603823644151 -0.897624092019
3.809698444000 0.614687595294 -0.866608166902 -0.011860722043 -0.013211282764 -0.011023715593 -0.013240102730 0.596277577392 -0.908251378239
3.811031555000 0.612532448924 -0.870287482709 -0.012108948912 -0.013451960299 -0.010874963514 -0.012928265888 0.591019530120 -0.906116441159
3.812364666000 0.609791825852 -0.867201907260 -0.011822616433 -0.013278881076 -0.010985667308 -0.013154300437 0.598393301251 -0.910670932088
3.813697777000 0.613244301451 -0.869108397702 -0.011682133376 -0.013721503792 -0.010875472213 -0.012625434518 0.597423552298 -0.906982112293
3.815030888000 0.611723795531 -0.867998622785 -0.011968042962 -0.013637022908 -0.010757296735 -0.012915135151 0.592017765244 -0.915811234397
3.816363999000 0.615408523635 -0.870523124169 -0.011373148948 -0.012985740364 -0.010675401265 -0.013023716946 0.598018262489 -0.911451615023
3.817697111000 0.611739142432 -0.869734241782 -0.011405871093 -0.013106858842 -0.010464218524 -0.012728763562 0.595784122960 -0.901146838629
3.819030222000 0.605832706781 -0.872827732445 -0.011977043371 -0.012971021644 -0.010700069328 -0.012635566785 0.596541133528 -0.911590879349
3.820363333000 0.611279609922 -0.873899813124 -0.011108949886 -0.013213831168 -0.010276133804 -0.012633371036 0.593273855458 -0.906729212012
3.821696444000 0.613692150092 -0.872168023762 -0.011766832664 -0.013205103595 -0.010646899615 -0.012843489921 0.596167372542 -0.912731700806
3.823029555000 0.613774909637 -0.873668979819 -0.011361869709 -0.013498003616 -0.010334775405 -0.012493271015 0.598274442687 -0.904619218510
3.824362666000 0.611441952795 -0.875342864635 -0.011586281352 -0.013069751476 -0.009977815284 -0.012295667709 0.597604975180 -0.910045875538
3.825695777000 0.610797012570 -0.873160008683 -0.011584010882 -0.012854493371 -0.010621319026 -0.012463664908 0.593773998366 -0.910872726457
3.827028888000 0.610958822655 -0.875863517143 -0.010549519831 -0.012724415263 -0.010684294900 -0.012369765431 0.590474352039 -0.913802692687
3.828361999000 0.610750882271 -0.877460294765 -0.010318432766 -0.012694702513 -0.009914738599 -0.012188696612 0.585501240706 -0.911133204213
3.829695111000 0.613122196030 -0.876432139999 -0.010409100524 -0.012655590110 -0.010132763153 -0.012038607061 0.587676724145 -0.906492343320
3.831028222000 0.611988268599 -0.873560983701 -0.010496152677 -0.012236306100 -0.010079863067 -0.012305200420 0.589817722017 -0.911807183058
3.832361333000 0.609334782603 -0.874711476292 -0.010858576768 -0.013000761989 -0.010098222057 -0.012073238962 0.589363304578 -0.911356785006
3.833694444000 0.612521650622 -0.877484629413 -0.011069606773 -0.012779901844 -0.009911424079 -0.011620490872 0.590661408421 -0.900420048364
3.835027555000 0.613674397312 -0.877641384950 -0.010308378922 -0.013036370261 -0.009817186796 -0.011647276157 0.585751154608 -0.905362086508
3.836360666000 0.611355934537 -0.878810165204 -0.010700815633 -0.011928986863 -0.009714880087 -0.011613089104 0.587001516585 -0.910667838130
3.837693777000 0.611019842300 -0.876297438632 -0.010549460462 -0.011950144627 -0.009959522113 -0.011781170226 0.589018587017 -0.910876612289
3.839026888000 0.612835145078 -0.877511803757 -0.010244174219 -0.011757419172 -0.009475682848 -0.011976809922 0.590485691126 -0.910497223044
3.840359999000 0.614679721385 -0.878134837887 -0.009896452301 -0.012113488076 -0.009452009871 -0.011591513339 0.591139586777 -0.913272845108
3.841693111000 0.610560384216 -0.877221903748 -0.010372116526 -0.012239619650 -0.009791829296 -0.011357255869 0.587365216969 -0.910986068190
3.843026222000 0.611933649771 -0.879223946585 -0.009561496218 -0.011301297312 -0.009321811713 -0.011517382050 0.590903562771 -0.916702066657
3.844359333000 0.610969751675 -0.878613925890 -0.009632123812 -0.012008892977 -0.009379916387 -0.011678928411 0.586513283398 -0.918448751762
3.845692444000 0.609142279087 -0.882967086439 -0.009724674057 -0.012178233215 -0.009666168166 -0.011301518452 0.589406961837 -0.914752807953
3.847025555000 0.609274389863 -0.881525603518 -0.010460762819 -0.011954710225 -0.009084700417 -0.011316204373 0.579618229029 -0.917104624374
3.848358666000 0.610991162217 -0.880003300143 -0.009676397756 -0.011795244693 -0.009129091157 -0.010894165557 0.583483934229 -0.914099749123
3.849691777000 0.608931791242 -0.881505519149 -0.010128232047 -0.011259786160 -0.008963814973 -0.010986253289 0.583317062019 -0.911397225669
3.851024888000 0.610241637788 -0.881491221751 -0.009460983710 -0.011513482904 -0.008757936030 -0.011135775307 0.585610229341 -0.916048912046
3.852357999000 0.613797309027 -0.884668898621 -0.009124411668 -0.011243165549 -0.009055471159 -0.010908274260 0.580989058038 -0.915232340668
3.853691111000 0.610960175395 -0.880686412166 -0.009267622389 -0.011932961486 -0.008904592591 -0.010977500277 0.584256732390 -0.915965870670
3.855024222000 0.609322436256 -0.881310540958 -0.009820698207 -0.011499009105 -0.009005662136 -0.010858327296 0.581334822828 -0.915305200466
3.856357333000 0.610257791356 -0.883306385831 -0.009135562633 -0.011614500304 -0.008838150612 -0.010816516440 0.582267291672 -0.920353629288
3.857690444000 0.614287314487 -0.876524038795 -0.009000350970 -0.011118718690 -0.008546887775 -0.010900227165 0.582857644054 -0.918942987324
3.859023555000 0.614125855948 -0.881359951440 -0.009470638486 -0.011424226980 -0.008749036501 -0.010386913327 0.575508042167 -0.914991904573
3.860356666000 0.609597483309 -0.877627044930 -0.009484774058 -0.010917936722 -0.008618848044 -0.010438030723 0.579394680376 -0.919721465980
3.861689777000 0.608819875752 -0.886482883068 -0.008735202294 -0.010636963019 -0.008758671277 -0.010298308886 0.583384591592 -0.918790470266
3.863022888000 0.610696445094 -0.877040016931 -0.009242359054 -0.011339990841 -0.008870110296 -0.010388610508 0.578603136982 -0.918021276647
3.864355999000 0.602347475812 -0.879396168219 -0.009277276612 -0.010610344719 -0.008514642251 -0.010379928344 0.581276608890 -0.915271920939
3.865689111000 0.610478016384 -0.888787232675 -0.008897610454 -0.011209113829 -0.008258813394 -0.010586146997 0.581635808083 -0.916866994921
3.867022222000 0.607059067285 -0.882774480141 -0.009115860441 -0.011051912402 -0.008470148896 -0.010213837042 0.576401769072 -0.920873074080
3.868355333000 0.611848701912 -0.885331074202 -0.008855363122 -0.011010796540 -0.008438976875 -0.010126090190 0.576768368756 -0.920182461326
3.869688444000 0.612322899195 -0.880636710944 -0.008515610614 -0.010493456945 -0.008473331645 -0.009993875119 0.578664003941 -0.918224470734
3.871021555000 0.610833961201 -0.882697316505 -0.008332360122 -0.010423341859 -0.008024899151 -0.009979338603 0.577156244329 -0.920754137627
3.872354666000 0.610143773290 -0.885022499345 -0.008411940516 -0.010010407232 -0.008085643347 -0.010125775013 0.576274506743 -0.920257685205
3.873687777000 0.611776727261 -0.887532707103 -0.008396277625 -0.010165273478 -0.007749420183 -0.010040493299 0.577120990213 -0.920548726224
3.875020888000 0.606715048562 -0.885326996948 -0.008663039473 -0.010044799672 -0.007997343012 -0.009805821795 0.573810909204 -0.921875861466
3.876353999000 0.604152381861 -0.881817637011 -0.008633591091 -0.010565247332 -0.007917570024 -0.009645846599 0.574311429213 -0.921417386603
3.877687111000 0.611269644744 -0.888078101273 -0.008501141207 -0.010690308172 -0.007817512554 -0.009552767143 0.571950975638 -0.921598564966
3.879020222000 0.610296701536 -0.888542365041 -0.008257368102 -0.010150480263 -0.007805288763 -0.009725687688 0.573704529577 -0.922785157420
3.880353333000 0.605534798319 -0.888290711540 -0.008405407158 -0.010247888507 -0.007943271278 -0.009457925876 0.575255165937 -0.923783001374
3.881686444000 0.611902170504 -0.887410505906 -0.008326104732 -0.009986467792 -0.007461632901 -0.009276195500 0.572576685615 -0.922298317377
3.883019555000 0.603131143870 -0.883726874415 -0.008332077433 -0.009938096690 -0.007895060667 -0.009237826372 0.574823356533 -0.922862492959
3.884352666000 0.610988481594 -0.888504976656 -0.008364810961 -0.010136479794 -0.007392385841 -0.009429981383 0.572584540712 -0.920502649511
3.885685777000 0.603065816935 -0.888188060070 -0.007692526475 -0.009824821652 -0.007596003141 -0.009362845250 0.573982572201 -0.924488273397
3.887018888000 0.609182309379 -0.885660072108 -0.007762546398 -0.009601181690 -0.007466008430 -0.009186345753 0.569957508230 -0.926476059591
3.888351999000 0.610211796503 -0.888387674736 -0.007334202189 -0.010157673604 -0.007487969500 -0.009192549528 0.571763700199 -0.927843172416
3.889685111000 0.600368025137 -0.890204930284 -0.007731482977 -0.009933718774 -0.007511127825 -0.009127241601 0.567824591699 -0.930087952065
3.891018222000 0.602506753813 -0.896239055909 -0.007804036746 -0.009508372577 -0.007416444442 -0.008778152502 0.571311722236 -0.927923482675
3.892351333000 0.604561444962 -0.884734956881 -0.007854502056 -0.009264202710 -0.006950246976 -0.009031823320 0.571467046345 -0.927244481628
3.893684444000 0.608223812829 -0.892049896292 -0.007223344407 -0.009721022763 -0.007336049004 -0.008935001232 0.571691165001 -0.932279652247
3.895017555000 0.605374997787 -0.884959962145 -0.007382970968 -0.009772345640 -0.007092659737 -0.008921994801 0.569740667684 -0.931576451702
3.896350666000 0.609202697764 -0.885114428699 -0.007515638812 -0.009440152541 -0.006922456689 -0.008912833272 0.571317141744 -0.928070536212
3.897683777000 0.610780688793 -0.892242295234 -0.007134397170 -0.010044576959 -0.006981952399 -0.008919320008 0.568479362088 -0.932714525211
3.899016888000 0.601996025060 -0.891905008945 -0.007592854817 -0.009134790286 -0.007079503696 -0.008722361487 0.568537187071 -0.932524563253
3.900349999000 0.600416341906 -0.891404259142 -0.007441482297 -0.009479194811 -0.006885805753 -0.008580063025 0.570603983787 -0.933029585078
3.901683111000 0.607389993331 -0.898243555854 -0.007072933115 -0.009190636316 -0.006908162774 -0.008718918945 0.565384999862 -0.932591065822
3.903016222000 0.601870943668 -0.890448832711 -0.006995112808 -0.009215899236 -0.006613585333 -0.008510230295 0.566757270169 -0.933241218597
3.904349333000 0.608286344161 -0.893409992152 -0.006953388024 -0.009853505994 -0.006558272771 -0.008457390407 0.570606914513 -0.934290572654
3.905682444000 0.599214505668 -0.888517540468 -0.006613754297 -0.009233760420 -0.006475521397 -0.008303208996 0.574022762431 -0.939779305863
3.907015555000 0.601767559147 -0.896142023249 -0.006956577344 -0.008995641329 -0.006552073025 -0.008365597409 0.573170008237 -0.937464936619
3.908348666000 0.593777179630 -0.891439954272 -0.007117323202 -0.009223609176 -0.006557616770 -0.008356080085 0.569293997398 -0.932836432640
3.909681777000 0.606916502958 -0.898157722527 -0.006448837960 -0.009272069303 -0.006199724260 -0.008386973796 0.571856819381 -0.938290231392
3.911014888000 0.606259749555 -0.890745130218 -0.006431794011 -0.009078343128 -0.006344077214 -0.008294031686 0.569698366921 -0.935274626338
3.912347999000 0.601579675712 -0.887089659982 -0.006790655830 -0.009209077482 -0.006389360662 -0.008194286092 0.564474857512 -0.936471349295
3.913681111000 0.603113402713 -0.891624212849 -0.006514129844 -0.009187006147 -0.006152935331 -0.007804289030 0.568571831296 -0.933385554690
3.915014222000 0.602763701555 -0.887310241537 -0.006570702465 -0.009174812423 -0.006440303989 -0.008156769145 0.561558163859 -0.942886523070
3.916347333000 0.603919929918 -0.893694029177 -0.006010475190 -0.008938471978 -0.006244769311 -0.008102486710 0.567224207480 -0.939175025708
3.917680444000 0.601895163372 -0.895884105596 -0.006186615728 -0.008638952410 -0.006172096343 -0.007975920396 0.561280776235 -0.937214266990
3.919013555000 0.599607310563 -0.892691554985 -0.006460850880 -0.008757471826 -0.005976903117 -0.007761099717 0.574960124095 -0.941673968327
3.920346666000 0.599785946677 -0.898095405291 -0.006425747270 -0.008602210819 -0.005941676862 -0.007778073987 0.572897839079 -0.943341397644
3.921679777000 0.598890527222 -0.895356864911 -0.005985572014 -0.008643045804 -0.005873278849 -0.007958330463 0.578753563887 -0.950056318353
3.923012888000 0.600127464375 -0.894851958871 -0.006067997399 -0.009114417830 -0.005885405248 -0.007814984964 0.575664257481 -0.956200166198
3.924345999000 0.598627584949 -0.893752653319 -0.005704075401 -0.008601845189 -0.005968639999 -0.007601754128 0.578224026868 -0.942800513709
3.925679111000 0.602714268340 -0.896649497597 -0.005634979104 -0.008556572713 -0.005609180291 -0.007717550627 0.582603662556 -0.943295926085
3.927012222000 0.601807301573 -0.902146024532 -0.006095290503 -0.008862702291 -0.005725316672 -0.007683947184 0.572797998056 -0.941821546604
3.928345333000 0.598764449168 -0.895180985256 -0.005490004426 -0.008534891226 -0.005774302979 -0.007669864417 0.567868517439 -0.938540847406
3.929678444000 0.596622066680 -0.894445483112 -0.005515095040 -0.008528342378 -0.005599684596 -0.007653642953 0.564495003855 -0.942626080150
3.931011555000 0.594697860590 -0.896695598138 -0.005628992887 -0.008421202282 -0.005420699571 -0.007443695039 0.566711588175 -0.942506833944
3.932344666000 0.599476465365 -0.890077768104 -0.005649725280 -0.008590334560 -0.005390151598 -0.007400047913 0.565854271677 -0.942287940338
3.933677777000 0.591975481349 -0.894960005021 -0.005484266462 -0.008366437383 -0.005319387064 -0.007563307034 0.564750068012 -0.943718843327
3.935010888000 0.595283792864 -0.893855066479 -0.005660105866 -0.008254422235 -0.005625726117 -0.007313997677 0.560819026083 -0.942088557454
3.936343999000 0.600078865585 -0.898388214261 -0.005452565885 -0.008402653644 -0.005225765854 -0.007310398923 0.567387066196 -0.937964576020
3.937677111000 0.597090135041 -0.896725396239 -0.005566568571 -0.008015836986 -0.005080589744 -0.007207627988 0.564701410712 -0.942449032813
3.939010222000 0.594723907553 -0.897500789297 -0.004981740585 -0.008255145672 -0.005332838426 -0.007084225027 0.567482385757 -0.942716242717
3.940343333000 0.592010940475 -0.894996550265 -0.005511935080 -0.007908022520 -0.005072324284 -0.007044500314 0.563417390073 -0.942870343649
3.941676444000 0.592975634126 -0.894828384838 -0.005344649646 -0.007814773106 -0.004993300772 -0.007090445179 0.565834096746 -0.938196529770
3.943009555000 0.594120411966 -0.898512026285 -0.005356817285 -0.008144761117 -0.005354127059 -0.006780587496 0.561414882415 -0.939747379481
3.944342666000 0.594103729347 -0.897271405365 -0.005100530123 -0.007510012085 -0.004988244496 -0.007025183092 0.564115804644 -0.943569955925
3.945675777000 0.594422486780 -0.897475581750 -0.005324667521 -0.008166123647 -0.005020192799 -0.006980472158 0.557927790863 -0.946348835359
3.947008888000 0.591059911835 -0.895156100824 -0.005332235246 -0.007722392059 -0.004872420537 -0.006913907627 0.558258364379 -0.942919976904
3.948341999000 0.585669830251 -0.897695934859 -0.005008563476 -0.008177758186 -0.004995275364 -0.006713225230 0.557729728513 -0.945113466000
3.949675111000 0.591500241280 -0.894190200825 -0.004900118317 -0.007619484759 -0.004920437564 -0.006772584362 0.563400428847 -0.945948401996
3.951008222000 0.592079619227 -0.896821266133 -0.004796720660 -0.008075053672 -0.004672563921 -0.006671221113 0.563677048308 -0.942564031201
3.952341333000 0.593858786882 -0.897296871827 -0.005154202350 -0.007753441293 -0.004742769798 -0.006614238198 0.558571158158 -0.945675276112
3.953674444000 0.587122353713 -0.897927330428 -0.004667347608 -0.007997187484 -0.004707977652 -0.006498201743 0.564734455326 -0.941608819443
3.955007555000 0.591625577484 -0.897815427797 -0.004873753919 -0.007968327111 -0.004760270635 -0.006564797861 0.556370303917 -0.941653715772
3.956340666000 0.586917041509 -0.898353177545 -0.004745844960 -0.007177046299 -0.004599584922 -0.006370837348 0.558251075874 -0.943811112882
3.957673777000 0.590833396827 -0.899810724609 -0.004563662585 -0.007656870060 -0.004533150231 -0.006369614292 0.557153432824 -0.944318942264
3.959006888000 0.587038904116 -0.895674968700 -0.004473074299 -0.007052303243 -0.004529861815 -0.006460283194 0.561126639857 -0.944819802829
3.960339999000 0.589029569468 -0.896948290910 -0.004456885183 -0.007643722526 -0.004619056097 -0.006534599432 0.554973103667 -0.943518680671
3.961673111000 0.586920293928 -0.897251223485 -0.004846253094 -0.007383726868 -0.004628677352 -0.006399919289 0.552948578149 -0.939081920337
3.963006222000 0.584783649297 -0.895959459162 -0.004147129349 -0.007709209348 -0.004361761964 -0.006158023157 0.557900875810 -0.941834106384
3.964339333000 0.584752952747 -0.897089146804 -0.004081692409 -0.006853802616 -0.004408161089 -0.006403601245 0.554445141632 -0.944317083849
3.965672444000 0.585587747279 -0.896633546774 -0.004201732970 -0.007108936963 -0.004363054730 -0.006152679175 0.560461698118 -0.943382349569
3.967005555000 0.585107680842 -0.897583522023 -0.004131341102 -0.007190942457 -0.004283870543 -0.006167711467 0.559146325160 -0.946856860369
3.968338666000 0.580800192942 -0.899529281774 -0.003798488670 -0.006818109179 -0.004317601258 -0.006001163002 0.552529319078 -0.946875479162
3.969671777000 0.583280143871 -0.897527503788 -0.003615659015 -0.007100389843 -0.004568481704 -0.005959864532 0.549987643019 -0.946419398177
3.971004888000 0.581467294634 -0.894686407117 -0.004038248936 -0.007370478455 -0.004365120264 -0.006029984691 0.553868158447 -0.947339694227
3.972337999000 0.579077996091 -0.899609715384 -0.004227969859 -0.007013324939 -0.004069228769 -0.005617316100 0.552325649035 -0.944329926891
3.973671111000 0.581442502207 -0.895476620412 -0.004197832989 -0.006784930253 -0.004013215373 -0.005804667590 0.552009922296 -0.944721120217
3.975004222000 0.582536251739 -0.896177897625 -0.003852270849 -0.006730449962 -0.004264105768 -0.005651794973 0.549118316188 -0.942213417306
3.976337333000 0.579545207346 -0.896488576361 -0.003958071396 -0.007141634847 -0.004041416843 -0.005809558505 0.549500772755 -0.945358589072
3.977670444000 0.580969730696 -0.898293699494 -0.003571044835 -0.006248253631 -0.003848970073 -0.005750885195 0.549001590347 -0.941448266048
3.979003555000 0.579898679830 -0.896100372626 -0.003870410386 -0.006635353076 -0.004110609065 -0.005688831034 0.547577535555 -0.943930548751
3.980336666000 0.578073665910 -0.895594934689 -0.004082192784 -0.006568651277 -0.003862831547 -0.005687888171 0.546180847316 -0.945664400114
3.981669777000 0.575280251374 -0.898614019888 -0.003698426481 -0.006164516298 -0.003907095853 -0.005677841847 0.544747496696 -0.946076749950
3.983002888000 0.579236392597 -0.899641898353 -0.004133686277 -0.006493079651 -0.004049697669 -0.005346045297 0.546840796751 -0.944177371149
3.984335999000 0.573813640173 -0.899883508914 -0.003940883148 -0.006637441478 -0.003844613476 -0.005295615173 0.545514295867 -0.944739684590
3.985669111000 0.576197995211 -0.897147532340 -0.003651666877 -0.005574216573 -0.003987889245 -0.005392250584 0.544910684376 -0.945381266305
3.987002222000 0.573788081449 -0.896563712805 -0.003514963762 -0.006348471586 -0.003724393663 -0.005524163252 0.543770181289 -0.944670754733
3.988335333000 0.576485901375 -0.898910782866 -0.003171181400 -0.005663801738 -0.003942678153 -0.005317526629 0.542199355131 -0.946818796811
3.989668444000 0.573335531680 -0.896961859681 -0.003631195167 -0.005933809838 -0.003954808789 -0.005221687459 0.542013407612 -0.948266324358
3.991001555000 0.572090947736 -0.898272973188 -0.002907357103 -0.005941815390 -0.003778020417 -0.005531587257 0.539622817081 -0.948151507057
3.992334666000 0.572144246546 -0.899354394356 -0.002801402756 -0.005370032427 -0.003653006475 -0.005141600897 0.540750587551 -0.947531672148
3.993667777000 0.571975787398 -0.903861931561 -0.003435834532 -0.005807477278 -0.003839381440 -0.005223499459 0.539733083729 -0.948143850601
3.995000888000 0.572236490716 -0.900009104691 -0.002967880178 -0.005032746170 -0.003609674421 -0.004842853239 0.540654032609 -0.945959531475
3.996333999000 0.571762435317 -0.906890258099 -0.003129714728 -0.005434140036 -0.003548857199 -0.005234435050 0.537828504149 -0.946017128568
3.997667111000 0.568134248987 -0.898728816182 -0.003369093327 -0.004887706853 -0.003503971675 -0.004822760874 0.538525988634 -0.946974323173
3.999000222000 0.561939907365 -0.899097621894 -0.002816785403 -0.004584837084 -0.003390577572 -0.004549843908 0.536580222390 -0.945791741431
4.000333333000 0.571306349733 -0.905110826260 -0.003582803912 -0.005412475061 -0.003254475264 -0.004466798423 0.536931972428 -0.948274564556
4.001666444000 0.565031509719 -0.894744781780 -0.003835700097 -0.004980555122 -0.003279375234 -0.004625412710 0.534548127646 -0.949121863408
4.002999555000 0.564458068032 -0.902434329476 -0.002911306453 -0.004225797646 -0.003702113691 -0.004599273358 0.533128390255 -0.952699431136
4.004332666000 0.564450856011 -0.901106153389 -0.003441196503 -0.005254277028 -0.003335701124 -0.004228715779 0.532232224600 -0.951574559641
4.005665777000 0.566269467695 -0.905256822199 -0.003318037087 -0.005123919778 -0.003256261443 -0.004760226488 0.534925271184 -0.949397608428
4.006998888000 0.568117220771 -0.902284850836 -0.002741145704 -0.004772609309 -0.002959440436 -0.004588956389 0.531089235750 -0.948991315084
4.008331999000 0.559586153985 -0.907367307969 -0.002343662245 -0.004702073525 -0.003242254163 -0.004374297533 0.530170013329 -0.947193907314
4.009665111000 0.566121369891 -0.905858242399 -0.003185202041 -0.005180132928 -0.003115310051 -0.003930505608 0.525711076960 -0.953603712876
4.010998222000 0.558922942533 -0.899536020101 -0.002275259797 -0.004263479953 -0.003078982008 -0.003859836421 0.525978798391 -0.952255268325
4.012331333000 0.558331885313 -0.901399379405 -0.003252559327 -0.004866552853 -0.003458121895 -0.004196685948 0.526334669925 -0.956707048412
4.013664444000 0.564845354312 -0.898614448280 -0.003443912999 -0.004724815494 -0.002720882793 -0.003825661610 0.531152847923 -0.951760806835
4.014997555000 0.555763444272 -0.900059761276 -0.003464240888 -0.004246287625 -0.002984188038 -0.004199007650 0.533397261511 -0.949820890775
4.016330666000 0.562274227447 -0.902567935385 -0.002349474807 -0.004506913460 -0.003053975932 -0.003927605599 0.526564286795 -0.955583947643
4.017663777000 0.553775007648 -0.894232689671 -0.002248377748 -0.003698329077 -0.002745627366 -0.003660085415 0.532488660700 -0.954740457355
4.018996888000 0.557789272385 -0.902944362091 -0.003542872799 -0.003311254935 -0.002772976809 -0.003219600100 0.525381737988 -0.956307450156
4.020329999000 0.559308829354 -0.907809581801 -0.003298314378 -0.003685335432 -0.002619553246 -0.004099970523 0.521140155994 -0.953955387186
4.021663111000 0.562732075399 -0.900887492363 -0.002785728437 -0.003176446955 -0.002851784573 -0.003964500035 0.524135198543 -0.949735065076
4.022996222000 0.553648751313 -0.906058965488 -0.003170090811 -0.003647988903 -0.002747902572 -0.003554420058 0.521580470708 -0.951501144355
4.024329333000 0.560765117317 -0.900684509067 -0.003625923750 -0.004079794273 -0.002840811110 -0.003729803137 0.523639751379 -0.958431707472
4.025662444000 0.558104903476 -0.902840644476 -0.003364077158 -0.004313155530 -0.002545629654 -0.004082879189 0.519304636651 -0.960710446099
4.026995555000 0.559618988369 -0.901815326571 -0.003098690962 -0.004244863358 -0.002587160065 -0.003285835626 0.518245475489 -0.953665930437
4.028328666000 0.563082090703 -0.898690965832 -0.003120623984 -0.003329029744 -0.002532333124 -0.003264117205 0.520650011996 -0.959794638456
4.029661777000 0.556164415888 -0.903382989777 -0.002274131202 -0.003864346428 -0.002557864831 -0.003468796487 0.518214229711 -0.962682588303
4.030994888000 0.557392976167 -0.902615086779 -0.002309188219 -0.003769351891 -0.002668938069 -0.003662142760 0.526221577403 -0.961183075817
4.032327999000 0.558506689627 -0.906877198242 -0.003031351161 -0.005082422959 -0.002692649640 -0.003419757653 0.520304082877 -0.962506779367
4.033661111000 0.553380367440 -0.909432073088 -0.002913088172 -0.003373482790 -0.002147977666 -0.003294615993 0.525304069252 -0.958592967808
4.034994222000 0.550017146321 -0.908051367802 -0.001846076242 -0.003338200577 -0.002390835591 -0.002751345132 0.519225917866 -0.966338477968
4.036327333000 0.558748342834 -0.908353395330 -0.002687040188 -0.003161162352 -0.002088115717 -0.002878232542 0.510057046685 -0.952513385540
4.037660444000 0.551206834455 -0.912583637327 -0.002688274881 -0.004608180385 -0.001930123526 -0.003083893392 0.515501808216 -0.954657732643
4.038993555000 0.554486412199 -0.910978095805 -0.002708141245 -0.002897938917 -0.002355068508 -0.002475075405 0.513466848806 -0.965646970461
4.040326666000 0.553880503851 -0.909876720280 -0.002805595845 -0.002545987846 -0.002279935217 -0.002631353782 0.515904682813 -0.966013058841
4.041659777000 0.546643526738 -0.904741525010 -0.002324692187 -0.002881814953 -0.002006830015 -0.002227920316 0.513593826563 -0.969106770826
4.042992888000 0.545193815063 -0.912410063030 -0.003128253158 -0.004199168569 -0.002400655287 -0.002554501258 0.508649667761 -0.960878772516
4.044325999000 0.552743910432 -0.914180544136 -0.002122496502 -0.002952199333 -0.002042166719 -0.002847020970 0.520170816768 -0.968313135070
4.045659111000 0.541836298734 -0.904356925283 -0.003652482189 -0.003303987840 -0.001691571863 -0.002377944639 0.510986925819 -0.963756558712
4.046992222000 0.553007769506 -0.910336302886 -0.003328017235 -0.003583960184 -0.001765882317 -0.002699714978 0.516433696247 -0.964077873766
4.048325333000 0.556331903160 -0.907738947422 -0.003516680318 -0.002610958243 -0.001511230144 -0.002404801081 0.509543857164 -0.966799542463
4.049658444000 0.553436830109 -0.912531506545 -0.002790591191 -0.004454981324 -0.002252637589 -0.001957379079 0.515703909909 -0.964852941310
4.050991555000 0.551862236864 -0.901120539655 -0.002505473980 -0.002868233991 -0.001829129199 -0.002527794669 0.518278170103 -0.962844100245
4.052324666000 0.549038491694 -0.926472032166 -0.001532343024 -0.004106760040 -0.002110703467 -0.002604762181 0.508638524362 -0.956978136104
4.053657777000 0.547100629683 -0.909169075611 -0.002610731682 -0.003964792244 -0.002212359941 -0.002444194130 0.509605411175 -0.971521825349
4.054990888000 0.557038442226 -0.908450126763 -0.002221336566 -0.002309345240 -0.001396104317 -0.001859751099 0.514311496866 -0.967707630556
4.056323999000 0.546220884529 -0.914359547015 -0.001574494140 -0.003592332226 -0.003026595013 -0.002090569452 0.508273835207 -0.972178240670
4.057657111000 0.551764779168 -0.911333689957 -0.002489359804 -0.004158385237 -0.001778752722 -0.002388106505 0.516490626328 -0.966664107488
4.058990222000 0.540189417024 -0.904920444046 -0.002658931033 -0.003147992497 -0.003475584548 -0.002782766183 0.502717860058 -0.958810253646
4.060323333000 0.538814214112 -0.912961564098 -0.002549441810 -0.003321702339 -0.002430243366 -0.002258972544 0.519635653113 -0.965710309568
4.061656444000 0.547383543101 -0.904335342433 -0.001707247943 -0.002990465529 -0.001601176721 -0.001541081935 0.509778894107 -0.958035386890
4.062989555000 0.541172647407 -0.915267670749 -0.001505528638 -0.002842138757 -0.001903906442 -0.002134246683 0.515595966727 -0.972626144024
4.064322666000 0.544036976850 -0.906428487224 -0.000711971618 -0.003192006153 -0.001765263004 -0.001773748840 0.513869670479 -0.968210762773
4.065655777000 0.545221027624 -0.911908758047 -0.003187955067 -0.003492287367 -0.001666940404 -0.001322462328 0.507634231773 -0.969801061101
4.066988888000 0.543098025300 -0.919568383261 -0.002076256284 -0.004011761795 -0.002705607189 -0.001769761051 0.504220780854 -0.970886708342
4.068321999000 0.543567630343 -0.917113140131 -0.002686677881 -0.003900562956 -0.001650774221 -0.001703285304 0.516158399284 -0.959215858688
4.069655111000 0.541854949734 -0.921249665736 -0.002335910022 -0.002781108593 -0.001619548153 -0.001597141244 0.509181905760 -0.961347145388
4.070988222000 0.537963664265 -0.913051611965 -0.002237372775 -0.003326844178 -0.001549423177 -0.001875390446 0.516244525410 -0.969915876203
4.072321333000 0.547176836703 -0.915083994227 -0.001921830314 -0.004169734219 -0.001340463086 -0.001695700910 0.502852262554 -0.973192140129
4.073654444000 0.548813353250 -0.917275468786 -0.001944983644 -0.004336238623 -0.001262733415 -0.001682851718 0.506718647706 -0.967338252052
4.074987555000 0.538656157801 -0.920779357364 -0.001119614636 -0.004049347560 -0.001943195371 -0.001661432735 0.508417884526 -0.978811806694
4.076320666000 0.547922235848 -0.905212667732 -0.000020148764 -0.004009507813 -0.001436483311 -0.002245838028 0.501535697906 -0.978422733454
4.077653777000 0.547952886050 -0.915001917707 -0.001530090166 -0.004601876745 -0.001716654131 -0.001245548515 0.504228251373 -0.972231019472
4.078986888000 0.538108821640 -0.918683493364 -0.001117769468 -0.002828795137 -0.001699028025 -0.001228843956 0.507369191845 -0.969284180588
4.080319999000 0.539167162528 -0.917833836937 -0.000515918021 -0.004077883326 -0.001411280163 -0.001392103301 0.500860809981 -0.966928225758
4.081653111000 0.542641399809 -0.919419103485 -0.000716495754 -0.003507568853 -0.001470046395 -0.001576142449 0.505284872725 -0.973552711786
4.082986222000 0.541842889775 -0.912663849456 -0.000756269958 -0.003592471267 -0.001598159458 -0.001696492302 0.504480605104 -0.977878982726
4.084319333000 0.544375403314 -0.917639708625 -0.000291138827 -0.003089214376 -0.001769671614 -0.001628222598 0.505225399654 -0.983332969822
4.085652444000 0.548259188988 -0.910714930834 -0.001047912075 -0.004997154328 -0.001090941423 -0.000831959075 0.497750336159 -0.966957559906
4.086985555000 0.546216970508 -0.913523704926 -0.000527188618 -0.004838246876 -0.002147058085 -0.001121397866 0.503382438461 -0.983135228798
4.088318666000 0.545663699426 -0.925160198777 -0.000182859106 -0.004340451718 -0.001987691913 -0.001488690494 0.501893421785 -0.975099837427
4.089651777000 0.546596544051 -0.916770436654 -0.000710480902 -0.002820358334 -0.001382442164 -0.000758715615 0.500424032503 -0.975656248219
4.090984888000 0.549013930801 -0.914188387799 0.000595756801 -0.003799070927 -0.001175065462 -0.000972311386 0.501587861054 -0.970185147019
4.092317999000 0.544259790826 -0.921173210204 -0.001398541099 -0.003780042612 -0.001679601244 -0.001227805500 0.495814403654 -0.974890244258
4.093651111000 0.541669865687 -0.919749800546 -0.000927853382 -0.002969067197 -0.001298792961 -0.000928197600 0.503524975715 -0.976798348267
4.094984222000 0.540734921709 -0.926041036681 -0.000353920878 -0.004284791783 -0.001346148122 -0.000724624893 0.501224373827 -0.972840565825
4.096317333000 0.549919081739 -0.929799248954 -0.000947252388 -0.003598052204 -0.001073956611 -0.001189888056 0.502724181875 -0.976387850184
4.097650444000 0.541311424578 -0.920894466212 0.000727788470 -0.003264878933 -0.001146425061 -0.000790971761 0.505717243608 -0.981595649846
4.098983555000 0.551164163123 -0.921847009946 0.000665332098 -0.003650757671 -0.000601440196 -0.000635117730 0.496363648905 -0.977154414005
4.100316666000 0.548999346934 -0.918138091436 0.001176754487 -0.003250189033 -0.001099106884 -0.000527478327 0.498660337772 -0.976184489708
4.101649777000 0.552762277528 -0.925803764084 -0.000105974313 -0.003124889690 -0.001849215514 -0.000789005374 0.498806122355 -0.967928800488
4.102982888000 0.552374780069 -0.918746471187 -0.000053631766 -0.004398246697 -0.001327361065 -0.000739974619 0.497130097174 -0.971820440957
4.104315999000 0.552904580946 -0.920106558480 0.000596286299 -0.004511328136 -0.001028082309 -0.001085123999 0.494087405444 -0.978005860301
4.105649111000 0.550627207673 -0.926352481147 0.002552373028 -0.002771627395 -0.001137737123 -0.001354499648 0.501141303812 -0.983243405175
4.106982222000 0.550094254680 -0.916101804382 0.001650891569 -0.004088429530 -0.001859544612 -0.000470068180 0.493060888803 -0.978143039688
4.108315333000 0.550297542478 -0.922195139868 0.001248415362 -0.003778921028 -0.000988568673 -0.000499987026 0.501169140307 -0.975113117138
4.109648444000 0.555597328129 -0.920612166984 0.002303785106 -0.002335016675 -0.000571884066 -0.000893384520 0.504207904158 -0.970045072237
4.110981555000 0.555936559690 -0.919418743498 0.000944189663 -0.002575787808 -0.001094988421 -0.000121598262 0.504829567725 -0.970892095062
4.112314666000 0.554967611519 -0.919757841168 0.001057585168 -0.002957229415 -0.001169751191 -0.000549790232 0.499584582357 -0.976553143525
4.113647777000 0.556343754852 -0.915662727264 0.001227174990 -0.001979441072 -0.001041070823 -0.000854154418 0.497240703602 -0.974164836247
4.114980888000 0.556656988938 -0.920987801718 0.003220258761 -0.001876129983 -0.000638141358 -0.000486551773 0.497982907913 -0.973770560913
4.116313999000 0.554925766026 -0.917361729038 0.001462809270 -0.002051374369 -0.000981046314 -0.000856998402 0.499482040233 -0.974039841505
4.117647111000 0.557335205394 -0.923228013277 0.002643666002 -0.002255710854 -0.000301488829 -0.000545043294 0.501225149304 -0.972079660995
4.118980222000 0.557807855203 -0.922868951055 0.002071593275 -0.001521038530 -0.000524161696 -0.000694524238 0.498620314360 -0.970080487660
4.120313333000 0.557782420267 -0.919487880052 0.002591116123 -0.002593122391 -0.000734014650 -0.000972041380 0.497907550458 -0.980762192667
4.121646444000 0.561096877654 -0.918230695428 0.003716578783 -0.003032168242 -0.000370099908 -0.000732485089 0.498180617012 -0.974414863432
4.122979555000 0.559693342975 -0.918114460582 0.002094515509 -0.002268329416 0.000394445631 0.000136941264 0.491933488032 -0.973380427644
4.124312666000 0.555287504990 -0.918977420940 0.002333365366 -0.001038971604 0.000014813381 -0.000890534202 0.495983687718 -0.973671043853
4.125645777000 0.562472748931 -0.920388267670 0.003415185396 -0.000761343088 0.000117312926 -0.000126381914 0.493217862980 -0.975202521861
4.126978888000 0.561188681065 -0.913352682858 0.003348304985 -0.002910915452 0.000410982961 -0.000428121377 0.495680541325 -0.979017407614
4.128311999000 0.563574691616 -0.912889200877 0.004183917399 -0.001850150843 -0.000713236715 -0.000389978248 0.495224918104 -0.974428853879
4.129645111000 0.568203705294 -0.914271469304 0.004671687749 -0.001443529173 -0.000559777717 -0.000949525056 0.495230752647 -0.975457093845
4.130978222000 0.567929322349 -0.920497719745 0.004568859497 -0.001671090870 -0.000663442274 -0.000611077232 0.497947240399 -0.975332495039
4.132311333000 0.566900261898 -0.911939434998 0.004362872716 -0.001466252759 0.000142186262 -0.000800892876 0.493808952622 -0.980694506492
4.133644444000 0.567322904608 -0.915652657525 0.004345632011 -0.001643002030 0.001146663149 -0.000583946522 0.496982529316 -0.977377467612
4.134977555000 0.562560980796 -0.912979169284 0.004639488136 -0.001464837013 0.000344015121 -0.000851210422 0.496476835375 -0.978477021092
4.136310666000 0.564710679559 -0.915864410127 0.003183109841 -0.001188171155 0.000281286925 -0.000411701072 0.492647447141 -0.980131867089
4.137643777000 0.568899078441 -0.914473992498 0.005035215992 -0.000325235187 0.000503618816 -0.000396715228 0.496632484208 -0.977630384837
4.138976888000 0.567036368614 -0.914276415112 0.003729281774 0.000695483509 0.000925103901 -0.000604409833 0.494492282411 -0.976798648567
4.140309999000 0.571818058827 -0.914080972526 0.003868533044 0.000190876164 0.000982663524 -0.000153538729 0.494045405586 -0.977776872663
4.141643111000 0.571358925060 -0.912538285335 0.004032068819 0.000994773999 0.001042522072 -0.000392136851 0.495401458963 -0.976578187708
4.142976222000 0.571260669782 -0.917659754710 0.004052868520 0.000623601379 0.001578574008 -0.000229361579 0.494480579539 -0.978523201976
4.144309333000 0.570659579239 -0.911120111949 0.005331067030 -0.000035298981 0.001117779018 0.000068647854 0.492911587405 -0.980465421155
4.145642444000 0.572819628459 -0.915554689287 0.004187509842 0.001139618577 0.001010117314 -0.000779304476 0.494181715275 -0.979459343287
4.146975555000 0.573462773177 -0.908511829554 0.004201334330 0.000012469422 0.000903290360 -0.000833503607 0.495105644528 -0.977754364610
4.148308666000 0.576320837001 -0.906515394095 0.004112764714 0.000339827363 0.001576241264 -0.000786300154 0.502238893218 -0.973211822431
4.149641777000 0.577640272486 -0.915272996837 0.004479148725 0.000293120938 0.001449710055 -0.000432063617 0.505374093724 -0.968225235262
4.150974888000 0.582295546074 -0.910605794242 0.005342056261 0.000695763629 0.001417495841 -0.000582015379 0.504675634041 -0.971105560070
4.152307999000 0.579956748856 -0.910349811102 0.005375966580 0.001391975173 0.001410209871 -0.001024322137 0.507543686040 -0.969596182169
4.153641111000 0.579800806674 -0.909513737645 0.004768351126 0.001212173393 0.001710763625 0.000186661064 0.505911458495 -0.971041363801
4.154974222000 0.582296134861 -0.915220547776 0.005428451982 0.000383074883 0.002087255704 -0.000689635542 0.508826676617 -0.972860793224
4.156307333000 0.583252155146 -0.904362909715 0.005268577705 0.000658575509 0.002218053919 -0.001039383779 0.509280411241 -0.971116764977
4.157640444000 0.582151285627 -0.907379927722 0.004963422950 0.000882181678 0.002436639624 -0.000258493905 0.509588252682 -0.973330090285
4.158973555000 0.582797192723 -0.909439973831 0.004102815145 0.001750306575 0.002544154521 -0.000359881273 0.493319433641 -0.985429645380
4.160306666000 0.585500282573 -0.909085581449 0.004883156415 0.002876346962 0.002466445458 -0.000639806242 0.503219716379 -0.981778916881
4.161639777000 0.585138103156 -0.906973006777 0.006159842429 0.002353994899 0.002540840994 -0.000959411210 0.494601918645 -0.979157806307
4.162972888000 0.592961775353 -0.910443026605 0.005983231888 0.002664822993 0.002455469984 -0.000687664833 0.495070206130 -0.983065322148
4.164305999000 0.590461044052 -0.904952922839 0.005648047115 0.002592293179 0.002745744558 -0.000196475365 0.495529318879 -0.981500759711
4.165639111000 0.585029548403 -0.902825152259 0.004484609004 0.002500133862 0.003280795565 -0.000139754505 0.498549084756 -0.983327021531
4.166972222000 0.588884031585 -0.905523435212 0.004939142704 0.003390136895 0.002860324856 -0.000602987499 0.494924843850 -0.984796057063
4.168305333000 0.588161868841 -0.905727413176 0.005414764732 0.002821983029 0.003005529333 -0.000423561382 0.495837614545 -0.985310466493
4.169638444000 0.594788493897 -0.903804147081 0.004625771224 0.002942696810 0.003100212156 -0.000256408170 0.498713282890 -0.984181788924
4.170971555000 0.593765247763 -0.910391075953 0.005267718358 0.003416645978 0.003268637161 -0.000690307126 0.492096943000 -0.984109532352
4.172304666000 0.590389245614 -0.910592665747 0.005583888563 0.003163722083 0.002869360488 -0.000742410930 0.495026492406 -0.985409713986
4.173637777000 0.590083086957 -0.904365071264 0.004019624442 0.003102388903 0.003628215144 -0.000563050100 0.495943215229 -0.984723188135
4.174970888000 0.591021998378 -0.903738163912 0.005320941399 0.003417979559 0.003870001032 -0.000541133960 0.507574110065 -0.987037022245
4.176303999000 0.596223709780 -0.900741154416 0.004960650152 0.003141346807 0.003681622480 -0.000541869073 0.500364247999 -0.985799904214
4.177637111000 0.587847511688 -0.905082487330 0.004904875964 0.003267075051 0.003984804962 -0.000732035037 0.503160735065 -0.993244004662
4.178970222000 0.593543193891 -0.904160870466 0.005004506399 0.003216660276 0.004079248545 -0.000288505437 0.504990657000 -0.986483458805
4.180303333000 0.596464788462 -0.902858719414 0.003476456255 0.004182067504 0.004176296653 -0.000062616156 0.502273888315 -0.987895951737
4.181636444000 0.588209310231 -0.900779365115 0.003799674066 0.004322927935 0.004630645068 -0.000134332502 0.495857031086 -0.988895485730
4.182969555000 0.595261983367 -0.905177007249 0.003663634330 0.004057893314 0.004825130035 0.000011471526 0.496373063291 -0.987210493271
4.184302666000 0.595135088661 -0.902088018924 0.003559388200 0.004026787333 0.004779484384 -0.000279052047 0.498167595029 -0.992352059772
4.185635777000 0.589374946794 -0.900421888544 0.004471666156 0.003368693596 0.004737011911 -0.000381861171 0.494339611007 -0.984605166149
4.186968888000 0.589175578341 -0.901093859275 0.003149827910 0.003894623137 0.004844016540 -0.000379995494 0.496647110785 -0.986722469993
4.188301999000 0.594970083936 -0.897748586618 0.003220857833 0.003629914844 0.005102750051 0.000021482068 0.500965823690 -0.990902844837
4.189635111000 0.590280947749 -0.901697327474 0.003366575891 0.004237533278 0.005365343401 0.000040913971 0.495185450980 -0.993863014013
4.190968222000 0.591468885731 -0.904264779195 0.003854726185 0.003412871198 0.005070374328 0.000025821903 0.501225868916 -0.989628461931
4.192301333000 0.585569419055 -0.893916618911 0.003539985048 0.003402873513 0.005163601925 -0.000044252149 0.496155117355 -0.990078660857
4.193634444000 0.590251652651 -0.892157220380 0.004174374096 0.003952411605 0.005214622361 0.000169124057 0.496590715719 -0.989641937017
4.194967555000 0.591358749673 -0.901497652201 0.004047602257 0.004169497894 0.005723494098 -0.000135746184 0.495515838332 -0.997597155866
4.196300666000 0.587956134606 -0.892599568515 0.003550902601 0.004172757906 0.005886874072 0.000277288162 0.490942864316 -0.996991180978
4.197633777000 0.583719373908 -0.896783592958 0.003805176524 0.004364277105 0.005746885123 0.000072692239 0.481754624239 -0.997973733905
4.198966888000 0.579823040041 -0.899397690746 0.002878003567 0.003537922409 0.005470605565 0.000540232152 0.490104648416 -0.999263964673
4.200299999000 0.585243894313 -0.905141169020 0.004073286531 0.003531766117 0.006749076405 0.002639205856 0.502806226354 -0.992247733299
4.201633111000 0.586007845602 -0.902040759443 0.003079210826 0.002907940805 0.006077371237 0.000421436939 0.497889686420 -0.997557783852
4.202966222000 0.584301780229 -0.895945157553 0.003414295150 0.003086669010 0.006292253826 0.000556639330 0.491452337048 -0.997061083861
4.204299333000 0.579490228025 -0.897987001138 0.003625922858 0.003454495280 0.006101380763 0.000629740904 0.498646423729 -0.996435941859
4.205632444000 0.582327641318 -0.904036451723 0.002831542855 0.003540668071 0.006653368266 0.000824693167 0.482953229805 -0.992727048457
4.206965555000 0.578687522043 -0.902572979677 0.003734509724 0.003565311718 0.006433599216 0.000868761205 0.495025635676 -0.992164029969
4.208298666000 0.576613861795 -0.897740134618 0.002988453277 0.003364600399 0.006520654838 0.001110174834 0.493824289364 -0.998527929673
4.209631777000 0.568399845536 -0.896214578924 0.003725225630 0.002930040161 0.006674227902 0.000814392257 0.491583175314 -0.991082668076
4.210964888000 0.567342957602 -0.897858096859 0.003402240197 0.003151237095 0.006883297586 0.000874216354 0.489989060935 -1.000455076385
4.212297999000 0.567117901482 -0.905480005632 0.003918788781 0.002925970251 0.006997115559 0.001147238999 0.484528057248 -0.997702233232
4.213631111000 0.569369828396 -0.903813322501 0.003938637731 0.002996574404 0.007034600346 0.001149937625 0.482992374993 -0.990876898395
4.214964222000 0.577077197974 -0.902745407394 0.003974982720 0.003044307365 0.007201950111 0.001110788408 0.488626703993 -0.989801324458
4.216297333000 0.571797117071 -0.904478214866 0.003434272213 0.002479932202 0.007425636660 0.001468265126 0.484203875265 -0.990519649489
4.217630444000 0.557622514326 -0.902175938942 0.003760672659 0.001851341373 0.007404436781 0.001498292470 0.478783099792 -0.993647349383
4.218963555000 0.568148575369 -0.904457439235 0.004396998668 0.002261716768 0.007558837958 0.001533631999 0.483789184646 -0.991998125613
4.220296666000 0.563062673676 -0.899199615738 0.003750751057 0.002558729108 0.007757136289 0.001708999459 0.481553733018 -0.990117020734
4.221629777000 0.563639555064 -0.901699113493 0.003460617073 0.002259075910 0.007564006787 0.001816500452 0.473717587900 -0.999530100206
4.222962888000 0.553854182849 -0.908357490542 0.003647513146 0.002089338703 0.007603071673 0.002075350993 0.482035686666 -0.997206426696
4.224295999000 0.557016776242 -0.904696666949 0.004312630641 0.001837342239 0.007603412255 0.001803376824 0.479547097444 -1.003083162316
4.225629111000 0.553630528274 -0.901226258989 0.004564479842 0.001607081909 0.008161812173 0.002144090269 0.479361924712 -0.996600396883
4.226962222000 0.549794666781 -0.910595484868 0.004613643570 0.001488291690 0.008060818529 0.002415232208 0.468406237138 -0.999530489800
4.228295333000 0.553417896519 -0.914489775594 0.004016314892 0.001630598254 0.008237063598 0.002423603919 0.481387825973 -0.997960228057
4.229628444000 0.558726097987 -0.917774750588 0.005107511987 0.001824118996 0.008329644260 0.002461298869 0.467953382964 -0.989472077422
4.230961555000 0.545696856833 -0.912140573517 0.004818801431 0.001329473617 0.008323514780 0.002464651103 0.469331155574 -0.997547282799
4.232294666000 0.557386562617 -0.906768865913 0.005060804575 0.001223990676 0.008187830907 0.002694678642 0.467761719219 -0.994356514223
4.233627777000 0.553163553412 -0.912828643337 0.005488079393 0.001379050951 0.008625375619 0.002729179874 0.470828864699 -0.999711254577
4.234960888000 0.546213149800 -0.910854475401 0.005993955373 0.001593137931 0.008397357452 0.003287290545 0.468553578095 -0.995037646568
4.236293999000 0.545598124869 -0.911393196924 0.005899924875 0.001535599120 0.008769288181 0.002720865745 0.457429119183 -0.999225889802
4.237627111000 0.548423392476 -0.911775644627 0.005953359728 0.000588393473 0.008369015673 0.002959449369 0.465343017957 -0.997405646025
4.238960222000 0.547397037242 -0.919374217987 0.006049902536 0.001785057333 0.008868067826 0.003009984897 0.458968696065 -0.993543656185
4.240293333000 0.543732194950 -0.913601758319 0.006399732054 0.001030770512 0.008558448600 0.002956899048 0.458677238747 -0.989985813874
4.241626444000 0.541192392231 -0.909717713496 0.006588211520 0.000867780002 0.008958950720 0.003131859681 0.457319558662 -1.001488067333
4.242959555000 0.534991222844 -0.920825524499 0.006417796264 0.001321834057 0.008920109812 0.003462299079 0.462196342989 -0.995268842221
4.244292666000 0.541231623428 -0.914762421141 0.006517112518 0.001430386277 0.008904814323 0.003439175680 0.452430238300 -0.988400537377
4.245625777000 0.537879538275 -0.917763938501 0.006800284472 0.001256090352 0.009097672103 0.003691674462 0.453379382989 -0.997477522888
4.246958888000 0.535621958246 -0.911410353381 0.007015315021 0.001798824185 0.009047798836 0.003720022548 0.456947019247 -0.996834699982
4.248291999000 0.537862139912 -0.918541727852 0.008131836059 0.001343826827 0.008954825187 0.003812992653 0.450679326077 -0.997344822470
4.249625111000 0.530367942616 -0.918488425891 0.008116853355 0.001041444237 0.008917093046 0.004110532034 0.449642751078 -0.995381333705
4.250958222000 0.531314366871 -0.911070528818 0.008071773698 0.001456716913 0.009205459836 0.003708669827 0.447553643398 -0.998651759506
4.252291333000 0.533848847373 -0.920038177358 0.007898079766 0.000752642711 0.009011173388 0.004437092578 0.447254207986 -1.000605558755
4.253624444000 0.531507076619 -0.915458290489 0.008745630481 0.001333002141 0.009053313797 0.004178227097 0.448150578483 -0.998746218519
4.254957555000 0.531738709328 -0.917225917753 0.008081939845 0.001703901659 0.009356554604 0.004449944310 0.443208293658 -0.997719379921
4.256290666000 0.525167023733 -0.920118587842 0.009299704842 0.000957934002 0.009393563142 0.004538548574 0.440894993915 -1.002214475641
4.257623777000 0.529687542996 -0.915777712995 0.008716720513 0.001770607907 0.009428255410 0.004317372611 0.439596415369 -1.000132446410
4.258956888000 0.523541656439 -0.916751185389 0.009731619015 0.001537258725 0.009315510217 0.004779915072 0.438353193714 -1.000855217897
4.260289999000 0.524782278354 -0.921168757617 0.009776520347 0.001661170775 0.009328756508 0.004808031333 0.433955347859 -1.002528674643
4.261623111000 0.525202043192 -0.921987040034 0.009929148298 0.001462910018 0.009242183786 0.004756536598 0.437417566481 -1.005421876818
4.262956222000 0.520947452691 -0.923664670455 0.010189153940 0.001817797905 0.009354971462 0.005024715829 0.435777275932 -1.001277134134
4.264289333000 0.519560321051 -0.918442469853 0.009879524597 0.002447643014 0.009744826530 0.004935841794 0.432138807139 -1.003990426614
4.265622444000 0.521559514363 -0.922994083884 0.009716147140 0.001727763330 0.009548534034 0.005183531091 0.432009505793 -1.004364287651
4.266955555000 0.521289037413 -0.920826421896 0.010021487890 0.001876400336 0.009514649077 0.005509857339 0.429689117821 -1.003057009258
4.268288666000 0.519538209938 -0.923093480129 0.010569226656 0.002964491809 0.009747981823 0.005245083579 0.427683858187 -1.003569346587
4.269621777000 0.519064592697 -0.921886573161 0.010404579352 0.001816235782 0.009781968259 0.005399383703 0.428145359587 -1.005103568112
4.270954888000 0.516595802249 -0.920361030326 0.011218468078 0.002701346720 0.009546314460 0.005298397614 0.427917094562 -1.002091903350
4.272287999000 0.517211505273 -0.922056250269 0.010661607958 0.003106963968 0.009902831290 0.005552320569 0.419335367100 -1.006650375126
4.273621111000 0.517204088874 -0.923843255126 0.010807530163 0.002588517618 0.009737762768 0.006006505648 0.425034276665 -1.006525917594
4.274954222000 0.517461233460 -0.921730140144 0.011524519892 0.002415964656 0.009785328007 0.005666006393 0.424265586584 -1.010607681281
4.276287333000 0.516102779287 -0.923980218014 0.011375911456 0.002808032870 0.009783705318 0.005591783779 0.423736751874 -1.013127436198
4.277620444000 0.517601890550 -0.923045727598 0.011152352152 0.003840633233 0.009683521308 0.005621399634 0.417508332024 -1.007905237318
4.278953555000 0.516368789492 -0.922335405223 0.011044788262 0.004280986360 0.009726381550 0.005414783723 0.415746694406 -1.003679460337
4.280286666000 0.513608800329 -0.924842658284 0.010693318074 0.004444763088 0.009698710760 0.005613005157 0.415144830831 -1.012377755621
4.281619777000 0.513315297937 -0.925092342851 0.011595937307 0.004183126535 0.009960440898 0.005838432808 0.413825854106 -1.008978370221
4.282952888000 0.511722281076 -0.923467365636 0.010911354960 0.004434753217 0.009890542017 0.006050361181 0.412069828483 -1.008156816871
4.284285999000 0.513921664233 -0.922115759308 0.012138180539 0.004799886015 0.010028457168 0.005967773847 0.407696542078 -1.014542279997
4.285619111000 0.511712937157 -0.928114125923 0.011343313857 0.004807046356 0.010008067491 0.005877585541 0.406075441115 -1.012694409211
4.286952222000 0.509319293757 -0.925864155829 0.011814318300 0.004306219809 0.009871712410 0.005995531393 0.403259742101 -1.012443942899
4.288285333000 0.508723514215 -0.923211062025 0.012279202146 0.004388654277 0.010443288748 0.006187163761 0.406491363449 -1.013177141432
4.289618444000 0.512508124142 -0.920303652924 0.011530196056 0.004571328776 0.010184129886 0.006232704511 0.394963178881 -1.017510320362
4.290951555000 0.509113360990 -0.926515047892 0.011995322041 0.004683864121 0.010368966150 0.006227112959 0.404701624445 -1.025301016181
4.292284666000 0.509690454277 -0.920694374054 0.011062987416 0.004836306414 0.010769108459 0.006353827658 0.389883248517 -1.009768670073
4.293617777000 0.511268129251 -0.926289129724 0.011985906000 0.005453541940 0.010531985696 0.005832758462 0.389990228250 -1.020846399722
4.294950888000 0.507997155854 -0.920034290174 0.011701305608 0.006074171026 0.010734272608 0.006342074198 0.388153340832 -1.019196869289
4.296283999000 0.510717234511 -0.924893548447 0.011039535515 0.004948312966 0.010534612474 0.006595752046 0.391246848527 -1.014944711349
4.297617111000 0.513504352331 -0.927565131424 0.012469383838 0.005572705712 0.010638908589 0.005728445525 0.394176439172 -1.019859402947
4.298950222000 0.507243324646 -0.926031984979 0.011409393088 0.006335305874 0.011232246548 0.006451951351 0.386935441086 -1.013328518173
4.300283333000 0.505351203960 -0.925551378819 0.011543785659 0.005704989525 0.010242718958 0.006176596773 0.393115950360 -1.028975496338
4.301616444000 0.508673244001 -0.924403363214 0.010983181825 0.005499304608 0.010925849694 0.006851142426 0.394404115043 -1.019054355846
4.302949555000 0.498090626953 -0.931196800554 0.010955582765 0.005862284266 0.011435415942 0.006009102667 0.380546082732 -1.025184351280
4.304282666000 0.503134024769 -0.933483123282 0.011834005252 0.005750106545 0.011281798345 0.006624616305 0.393429775279 -1.032884087619
4.305615777000 0.503395597118 -0.934789981335 0.011409085911 0.005842318745 0.011242257046 0.005939126633 0.393438905142 -1.010934275581
4.306948888000 0.503719181880 -0.928211640565 0.011873967503 0.006838415818 0.011394603088 0.005744323232 0.389857391340 -1.014643918531
4.308281999000 0.498672153356 -0.926834005145 0.011266975015 0.006564068194 0.011414049462 0.005820100078 0.381763832765 -1.010346942417
4.309615111000 0.494698532317 -0.932527975870 0.011521712466 0.005861451156 0.011540235110 0.006129954286 0.381653617444 -1.025620963638
4.310948222000 0.495172048758 -0.934713960426 0.010917277058 0.007134167212 0.012201861170 0.006159159754 0.393448125206 -1.013483470673
4.312281333000 0.503216881599 -0.926122843520 0.011473974328 0.007988682712 0.012071639776 0.006457653106 0.378487742977 -1.024748361157
4.313614444000 0.509000301196 -0.931348554778 0.010155171736 0.007451308774 0.012520070254 0.006463415614 0.380427988262 -1.042750192781
4.314947555000 0.493956701811 -0.938107486718 0.010878125002 0.007005125988 0.012200097180 0.006952021507 0.382615633292 -1.042949808055
4.316280666000 0.501571200426 -0.929918561613 0.011952153895 0.006621950470 0.012391619330 0.006799446342 0.367166266732 -1.027290925329
4.317613777000 0.496813716963 -0.925559567221 0.011613762367 0.006724493866 0.012215707474 0.006840505821 0.376984084257 -1.050206182266
4.318946888000 0.487428939634 -0.942414114309 0.011457514659 0.006795689711 0.012984816080 0.006580380610 0.381068217254 -1.028236197525
4.320279999000 0.500881654152 -0.931578459175 0.010985272800 0.006377807512 0.012856625823 0.006965208802 0.368579789398 -1.023300307544
4.321613111000 0.499522219950 -0.915284760645 0.011341485662 0.007708903819 0.012629336086 0.006516184292 0.370756511573 -1.019907440778
4.322946222000 0.488731329996 -0.936392525843 0.011507006650 0.008187349980 0.013349276211 0.005586636272 0.388835901443 -1.044518053304
4.324279333000 0.498097268606 -0.926043993371 0.011026211623 0.007784127076 0.013143367680 0.006584006069 0.373690502039 -1.037797509215
4.325612444000 0.506905494437 -0.935575129315 0.011509425829 0.007840463467 0.013531950680 0.006419196811 0.357575343549 -1.025229689986
4.326945555000 0.493405980315 -0.936204625407 0.010238489244 0.006829538145 0.013680568811 0.006560503962 0.356087032849 -1.033684467333
4.328278666000 0.499309203568 -0.932830726351 0.010132641160 0.007290564834 0.013300575241 0.006714941447 0.370276106873 -1.025219117724
4.329611777000 0.508230619888 -0.939617570493 0.010057492673 0.006579141923 0.014216851732 0.006506818384 0.365527041074 -1.016708551314
4.330944888000 0.489485331568 -0.931204056967 0.011129194211 0.006324908276 0.013912328897 0.007027378914 0.364568242610 -1.021335323896
4.332277999000 0.491631947676 -0.933792377247 0.011792246300 0.006822504953 0.014655660471 0.006878932606 0.364134726429 -1.043284047587
4.333611111000 0.500708242566 -0.941105895000 0.009802603769 0.007609185938 0.015296972431 0.006867516586 0.354604371801 -1.038089999481
4.334944222000 0.485643790900 -0.938868177129 0.011615240717 0.007826082883 0.014599153649 0.006900116140 0.369286568647 -1.033537151344
4.336277333000 0.499629189983 -0.936028537779 0.009441697884 0.007017923818 0.014382470483 0.007832043318 0.357248724660 -1.040650938668
4.337610444000 0.499650420503 -0.933200022410 0.010904681489 0.007732377608 0.015476717088 0.007271559142 0.354862428614 -1.041608438610
4.338943555000 0.488237020988 -0.932467499169 0.011334451057 0.008166120773 0.014289558901 0.007324104000 0.369788970573 -1.027216804174
4.340276666000 0.483220469002 -0.930846676550 0.011588627877 0.007113181413 0.014739026284 0.007315201773 0.364414255034 -1.030676917485
4.341609777000 0.492667626070 -0.939479301092 0.008666201742 0.006875188432 0.015492789059 0.007475920673 0.366322204801 -1.044709966693
4.342942888000 0.494209183465 -0.943534766397 0.009670042194 0.006834185741 0.015401438618 0.007341216288 0.373630064909 -1.034901968919
4.344275999000 0.484734724995 -0.930642820525 0.009481477044 0.007481023630 0.015545176897 0.007448262786 0.373405555303 -1.044921958254
4.345609111000 0.492404766518 -0.935546289923 0.009979897778 0.007288313698 0.015894201678 0.007701282047 0.360640470554 -1.037128113977
4.346942222000 0.490351294661 -0.937163607328 0.011592902463 0.006229414245 0.015483690200 0.007678499983 0.367045505149 -1.058002931651
4.348275333000 0.476936912126 -0.942929332855 0.011271741405 0.007171149532 0.014817412972 0.007430649846 0.364946638860 -1.019823120915
4.349608444000 0.483652073165 -0.934495910665 0.011722651902 0.007588949963 0.014453199518 0.007546407788 0.375779434396 -1.036257636285
4.350941555000 0.483091642215 -0.940915073112 0.010873975567 0.007671250712 0.014695311086 0.007831293831 0.354295332603 -1.038834730965
4.352274666000 0.486080470354 -0.932101470281 0.011594345431 0.006161410129 0.014711173088 0.008113768540 0.347917372077 -1.041736401765
4.353607777000 0.484822343925 -0.948838760226 0.010576455842 0.007809328182 0.015529048489 0.007331243903 0.373244546498 -1.027858870433
4.354940888000 0.500754965031 -0.936667061838 0.010518372508 0.006569148460 0.015981867745 0.008105128460 0.342382036334 -1.027208146643
4.356273999000 0.479628140754 -0.938952303526 0.010862602836 0.005386499622 0.016290889370 0.007969101868 0.352372681079 -1.046246406072
4.357607111000 0.483882014465 -0.933145719752 0.010848369816 0.007027607971 0.016484153156 0.008110945836 0.356757277636 -1.044440592854
4.358940222000 0.493925445514 -0.942714855047 0.010644861057 0.007077083742 0.015803594052 0.007767389128 0.352076338307 -1.029404732882
4.360273333000 0.497927138206 -0.954831751504 0.010256442034 0.007325164104 0.016464283245 0.007566194287 0.358290625809 -1.013584096406
4.361606444000 0.480354956288 -0.952045788050 0.012498643633 0.006150383830 0.016398582097 0.007909618874 0.343081015407 -1.041391107749
4.362939555000 0.498727722726 -0.937576464470 0.010763812671 0.005321968049 0.016485093989 0.008519699064 0.342977331505 -1.036524308591
4.364272666000 0.489935164790 -0.955829065548 0.011895503853 0.005340181951 0.015996565145 0.008628729619 0.361388590617 -1.024037533375
4.365605777000 0.501616024742 -0.945111587458 0.010860581650 0.006659364745 0.015687655918 0.008362471247 0.357319450818 -1.038388535271
4.366938888000 0.473487690923 -0.952021732504 0.011558658709 0.006882742457 0.016007188040 0.008632262257 0.364180557000 -1.020483288982
4.368271999000 0.505365303575 -0.948068053062 0.011747121683 0.006891447491 0.016132249515 0.008322012695 0.323418442444 -1.052156808228
4.369605111000 0.476793519402 -0.929925289766 0.010211549198 0.006588534687 0.015560185590 0.008322136493 0.347776922910 -1.020555543342
4.370938222000 0.486619142994 -0.951502845098 0.012002236229 0.006258878404 0.018215778157 0.006249900795 0.349210799252 -1.025287159278
4.372271333000 0.506026303964 -0.933988730380 0.013464968204 0.004392914723 0.018246512070 0.007242271784 0.347955389384 -1.025201103984
4.373604444000 0.496931976295 -0.955506604512 0.013065265990 0.004985278142 0.018331389220 0.006969569633 0.344602319429 -1.028902570443
4.374937555000 0.503735123068 -0.946438898323 0.011357862117 0.006432711966 0.019068095262 0.007038358038 0.336795151322 -1.043621846966
4.376270666000 0.484612113026 -0.946526212702 0.012108502316 0.006255917923 0.018707012950 0.006833177052 0.352114830644 -1.047106164754
4.377603777000 0.498346979052 -0.932498822516 0.012118643759 0.005763290511 0.018205091139 0.007997894475 0.341999684149 -1.032455354449
4.378936888000 0.497193725634 -0.947375971263 0.013015212037 0.007535860493 0.018689872784 0.007065995818 0.349189346455 -1.028310231888
4.380269999000 0.487506571538 -0.937812500178 0.013578436657 0.005293817656 0.018518027934 0.007819281450 0.345408434383 -1.033366978467
4.381603111000 0.493502001444 -0.944081839603 0.011979683707 0.006184279059 0.018268558332 0.006938612311 0.352022678209 -1.029512005092
4.382936222000 0.491507812647 -0.943549632561 0.013872317543 0.005537729754 0.018568692710 0.007381299045 0.346153764908 -1.017913388583
4.384269333000 0.485080176463 -0.947345193096 0.016041652595 0.005066382781 0.017133853616 0.006823154194 0.348609384191 -1.028789172451
4.385602444000 0.494033486408 -0.943656988921 0.015005568479 0.005125394432 0.017085482026 0.007862522382 0.343572882964 -1.024923464870
4.386935555000 0.489730063628 -0.928690785522 0.013129254969 0.007680657990 0.017827434120 0.008165668350 0.343541369101 -1.029440605422
4.388268666000 0.501922000185 -0.950296115293 0.014105018502 0.006397265562 0.017119696023 0.007798763939 0.349320005658 -1.024226783035
4.389601777000 0.485488973394 -0.940948719991 0.013292897469 0.005409333609 0.016626370825 0.008387895881 0.341895753672 -1.028471009597
4.390934888000 0.489313003816 -0.932969091588 0.013421993167 0.006467115827 0.016329280109 0.007688003773 0.345360222287 -1.023611590737
4.392267999000 0.490156267276 -0.939213101266 0.014158447600 0.005344716250 0.016235880337 0.008217895712 0.345775554082 -1.027480987226
4.393601111000 0.504540089142 -0.943409294622 0.014438401368 0.007106821955 0.015950770532 0.007573487879 0.348959567594 -1.024610099158
4.394934222000 0.493866729266 -0.943180460753 0.015193391535 0.006147456098 0.015933301622 0.007874912913 0.348020797885 -1.028602993076
4.396267333000 0.495879766454 -0.941288043252 0.013540174354 0.005388320265 0.015590041177 0.008424874945 0.346987700216 -1.027824700051
4.397600444000 0.505947248434 -0.940670821066 0.014168856794 0.005334406386 0.016696414454 0.008305070367 0.343549405208 -1.024059612144
4.398933555000 0.491503001164 -0.941362788081 0.014201805771 0.004996420363 0.015158474278 0.008029287668 0.344337898536 -1.024446966191
4.400266666000 0.484169583740 -0.939853756222 0.015713296154 0.005089889563 0.014178481355 0.007088592052 0.344033753735 -1.028450963471
4.401599777000 0.491121376383 -0.937365286184 0.014245235286 0.005742683190 0.014443758449 0.006333123799 0.341840183989 -1.024721583463
4.402932888000 0.478899963938 -0.935044242084 0.014501110492 0.005952561594 0.013325003279 0.006685568629 0.340722384048 -1.022412721337
4.404265999000 0.485263788026 -0.937751070815 0.013717602476 0.007133435525 0.012368396338 0.006863645875 0.345780687297 -1.021622661559
4.405599111000 0.490984308792 -0.941853952885 0.016171746498 0.006257794457 0.012964328643 0.006409000133 0.341241800105 -1.025911771615
4.406932222000 0.490625212636 -0.946985888318 0.015909783445 0.005675685086 0.012206015655 0.006572258058 0.346667102347 -1.026782733648
4.408265333000 0.495427523989 -0.925854593504 0.014462509365 0.006377937394 0.013551075845 0.006321350154 0.340703048615 -1.026174642368
4.409598444000 0.483032976623 -0.931388198187 0.015121911320 0.006478596181 0.013184393373 0.005882229398 0.339375299986 -1.023838534510
4.410931555000 0.495704623501 -0.931552336313 0.014508130037 0.005713048569 0.012414984008 0.006499509454 0.341157557393 -1.025023179039
4.412264666000 0.488801305965 -0.930962488699 0.015223588483 0.006609952712 0.012178145089 0.006158150098 0.341398234664 -1.018490449473
4.413597777000 0.491384213101 -0.942959637014 0.014498951044 0.006294072199 0.012516159628 0.005253688808 0.340429637982 -1.025138897404
4.414930888000 0.489000721503 -0.940647325465 0.016265309971 0.004930924762 0.011930435403 0.005797397156 0.337408701009 -1.021505400828
4.416263999000 0.492543008729 -0.932178538435 0.015949620907 0.005249864161 0.012090268953 0.004764099499 0.339742244408 -1.030867389854
4.417597111000 0.493766460782 -0.935717614757 0.015856256050 0.007576340837 0.011671777423 0.004888016468 0.340492379608 -1.021907076916
4.418930222000 0.500764508052 -0.936533359972 0.014963515393 0.006823091864 0.011455197114 0.004133947320 0.340937927067 -1.018182344828
4.420263333000 0.489579723376 -0.932781340277 0.016051841498 0.007252796568 0.012004700970 0.004666873619 0.342553802846 -1.022032865578
4.421596444000 0.484911607795 -0.930151694032 0.016322065530 0.006140792747 0.010751934504 0.004725110044 0.342762154392 -1.020984789565
4.422929555000 0.490445421690 -0.937647082097 0.014282863252 0.007201314686 0.011263670629 0.004498215243 0.346217457051 -1.020826112032
4.424262666000 0.489372833677 -0.939970776709 0.015833111790 0.006055496823 0.011080303796 0.003868707052 0.350590977860 -1.023521009344
4.425595777000 0.491792088739 -0.930716212804 0.015282106049 0.005770910668 0.010750196108 0.004421097796 0.343347729187 -1.020779699358
4.426928888000 0.487026855296 -0.935357221194 0.015429433027 0.006178482392 0.011281897276 0.004287158546 0.343792149141 -1.019474582664
4.428261999000 0.493215269375 -0.935680789918 0.016338814295 0.007793086074 0.011038229840 0.003028064541 0.340567115862 -1.021026876272
4.429595111000 0.491420101461 -0.936608078371 0.016807167892 0.005869836109 0.011482413533 0.002710035558 0.335966299040 -1.020981405163
4.430928222000 0.487959688370 -0.937014498311 0.017076252285 0.006509266690 0.011237706146 0.002687805302 0.348473643534 -1.016213610870
4.432261333000 0.493516739131 -0.936755791728 0.016622505479 0.005907498569 0.011104813023 0.003303815486 0.344532831630 -1.018537260041
4.433594444000 0.492606686865 -0.937986502764 0.016973183881 0.008030162826 0.011582054508 0.002044623353 0.344356381776 -1.020745102595
4.434927555000 0.498990693102 -0.936032273274 0.017736902032 0.008229552605 0.011697614070 0.001961809457 0.344989096056 -1.010393306874
4.436260666000 0.491267339414 -0.937937222996 0.017972484033 0.007358662065 0.011890874711 0.002570775561 0.340421669508 -1.021542572474
4.437593777000 0.493061881336 -0.934019470728 0.015756074741 0.007230164115 0.011542121725 0.001818775574 0.341970740826 -1.015516837907
4.438926888000 0.497618373674 -0.939257134847 0.015738736286 0.007948973010 0.011536568823 0.001313454760 0.345981175368 -1.018379768632
4.440259999000 0.494815337164 -0.935902933325 0.016646716166 0.008042899157 0.013095000695 0.001018671859 0.337141729375 -1.019340821975
4.441593111000 0.490419723683 -0.938535537063 0.016808037331 0.007885092463 0.012649638963 0.001730617645 0.355189867157 -1.012323824190
4.442926222000 0.496881566521 -0.936557230915 0.015886815342 0.008152058118 0.013209686153 0.001030531744 0.342540256756 -1.024720385839
4.444259333000 0.495639299404 -0.932584726867 0.016217385215 0.006929455866 0.012655153579 0.001269983784 0.344462200324 -1.022614251766
4.445592444000 0.496613113346 -0.934487741573 0.015979115280 0.007062764291 0.012879174390 0.000676942377 0.333782076509 -1.024905969566
4.446925555000 0.495645942267 -0.935516397127 0.016381695276 0.008831391218 0.012971405301 0.000847586272 0.323502671268 -1.021627813126
4.448258666000 0.492729444407 -0.934221053628 0.017034721612 0.007354962266 0.013265791919 0.000248894077 0.339489793310 -1.022667683962
4.449591777000 0.499409944819 -0.934504979204 0.017608518996 0.008767875381 0.013306600237 0.000866764461 0.336434995832 -1.016191659821
4.450924888000 0.495595257161 -0.936401052763 0.017056183804 0.008697485517 0.012778376004 -0.000045141136 0.345521482082 -1.011468709882
4.452257999000 0.496917445234 -0.934497017545 0.017121284699 0.008789751900 0.013189352721 0.000001655577 0.352109242494 -1.017565170564
4.453591111000 0.499449331297 -0.933345723881 0.016907849023 0.007471797746 0.013688588950 0.000420106266 0.346297470917 -1.026424276459
4.454924222000 0.495843865008 -0.932968462930 0.016411187538 0.007585592681 0.014421695242 0.000089716801 0.339307733467 -1.020779508180
4.456257333000 0.497372100411 -0.928568153060 0.016345275141 0.007941103506 0.014917783859 0.000202046393 0.351422558650 -1.018401829173
4.457590444000 0.497141737065 -0.928430430448 0.015926598527 0.007865077892 0.015332862066 0.000369410822 0.337155184147 -1.017786381895
4.458923555000 0.499325804036 -0.930099655077 0.017098173829 0.008937512594 0.015149967886 -0.000146098156 0.343095857257 -1.009290498503
4.460256666000 0.493810329842 -0.929021652205 0.015698347202 0.009134141069 0.015664544673 0.000030789218 0.356119813331 -1.025564214205
4.461589777000 0.490901747942 -0.934475824555 0.017643997868 0.008197130676 0.016034071057 -0.000090203833 0.328839657206 -1.026052339764
4.462922888000 0.495061605256 -0.932242897035 0.016831470039 0.008662297981 0.016112942985 0.000216673815 0.339605718450 -1.011449467144
4.464255999000 0.493221168636 -0.929940877712 0.016560067255 0.008461374813 0.015878359713 0.000035023097 0.334535965194 -1.017085939864
4.465589111000 0.494554369276 -0.931221739516 0.016272151069 0.009519757980 0.015774572675 0.000490504903 0.343643266106 -1.013353692622
4.466922222000 0.498922222398 -0.929476628917 0.016498132577 0.008538439557 0.016130376050 0.000133121566 0.354231050426 -1.019876769629
4.468255333000 0.494654502227 -0.929784442941 0.016314426465 0.009858388940 0.015989358274 0.000280668035 0.341024478611 -1.026265931770
4.469588444000 0.496393961350 -0.929894948065 0.016524760576 0.009237877813 0.015876107022 0.000713571376 0.341133883745 -1.026476428986
4.470921555000 0.486379695444 -0.930912168357 0.016352689168 0.009278706196 0.016044206055 0.000605044516 0.340978468613 -1.012699572878
4.472254666000 0.494033905168 -0.930437320542 0.016717253086 0.009336145850 0.016620610106 0.000582478126 0.348190078849 -1.032093488607
4.473587777000 0.494838268343 -0.924323872734 0.015731300043 0.009959093081 0.016557006343 0.001014989366 0.338713287673 -1.014289347046
4.474920888000 0.497784445963 -0.927520222227 0.015196446859 0.009280210919 0.016321786337 0.000949491888 0.334223541018 -1.019915883593
4.476253999000 0.492856674658 -0.930004812310 0.015078851209 0.008808613083 0.017075835684 0.001235727522 0.347303324671 -1.022274784208
4.477587111000 0.494091144991 -0.934163026990 0.016306028030 0.009389630872 0.017003020284 0.001371008699 0.335882883050 -1.017685685703
4.478920222000 0.489314840042 -0.934749785792 0.015211359560 0.008636684105 0.017074001709 0.001578114648 0.329441058948 -1.028018138376
4.480253333000 0.496699517746 -0.929515926795 0.016203977145 0.009148828908 0.017002953257 0.001684464281 0.336074702747 -1.028054297869
4.481586444000 0.495952502975 -0.925176474723 0.015826006308 0.009756402381 0.016733443267 0.002004424029 0.344826917627 -1.018453613848
4.482919555000 0.491965983970 -0.933280965308 0.015347600545 0.009310301464 0.017380264899 0.001664767959 0.343810552703 -1.028672028129
4.484252666000 0.501185723054 -0.935579196176 0.015827533648 0.009819981877 0.017217737028 0.001984109063 0.341136296038 -1.026217624850
4.485585777000 0.503691484356 -0.937813169873 0.014700477767 0.009058496804 0.017216135084 0.002458204860 0.330147381938 -1.018907081240
4.486918888000 0.501987363270 -0.922775235010 0.014675871132 0.009669613892 0.016934347478 0.002064861520 0.343889635982 -1.026568838003
4.488251999000 0.489798111374 -0.937222081760 0.015682469276 0.009121454498 0.017140602639 0.002809410445 0.344631862163 -1.018098857331
4.489585111000 0.500345980859 -0.935442066089 0.014954089011 0.009605349550 0.017342352809 0.002263312093 0.342029856556 -1.019062287958
4.490918222000 0.497913233456 -0.924369460460 0.015637616378 0.009480639983 0.016690715426 0.002470495996 0.340069265669 -1.022839505674
4.492251333000 0.494406996262 -0.928807694009 0.015744664053 0.009116273470 0.016920244855 0.002902018868 0.347021375349 -1.021962497776
4.493584444000 0.490592136862 -0.936880731651 0.015310166440 0.009547900332 0.017101682852 0.002859121506 0.347939171501 -1.020058477875
4.494917555000 0.501714315169 -0.929409933330 0.015654593653 0.009059138812 0.016936569737 0.003150347907 0.348778867827 -1.024385902724
4.496250666000 0.496161446479 -0.927831811593 0.015296937009 0.009246045878 0.017179280925 0.002903713047 0.341591269241 -1.020460110931
4.497583777000 0.493355920952 -0.931389958609 0.014777101795 0.009273684119 0.017093167807 0.003293866890 0.335186878272 -1.028920392066
4.498916888000 0.492833390725 -0.931333888266 0.015724447983 0.008934868741 0.017190808521 0.003504636153 0.343686748397 -1.020697277566
4.500249999000 0.495709148034 -0.939628632360 0.015494455678 0.009175141424 0.017186332341 0.003175871517 0.344414650954 -1.017460788116
4.501583111000 0.492704940892 -0.922141737442 0.014766454073 0.009465673607 0.016983315825 0.003703179638 0.340755525581 -1.028980573291
4.502916222000 0.503058294133 -0.938424801162 0.014789982519 0.009740272101 0.017087973226 0.003540061700 0.335661658612 -1.021260978384
4.504249333000 0.496215612059 -0.929738409782 0.015025343915 0.009594881268 0.017039660201 0.003238884654 0.337954004177 -1.026372305073
4.505582444000 0.502891464987 -0.930266635997 0.014996823149 0.008621710209 0.017627560259 0.004121081142 0.341752064172 -1.027254657255
4.506915555000 0.504711841260 -0.928200098863 0.014765972266 0.009017157945 0.017211457078 0.003974610510 0.338814993609 -1.024823960616
4.508248666000 0.499212786156 -0.923273485815 0.015410129013 0.008513007734 0.016969800137 0.003705990928 0.341513669811 -1.024852676258
4.509581777000 0.501413230135 -0.924275581764 0.014749569487 0.009277472004 0.017128334305 0.004629118440 0.346188406339 -1.023537905803
4.510914888000 0.495034945184 -0.922577017541 0.015172938128 0.009798191641 0.017218051983 0.004603504167 0.341982627899 -1.021964438988
4.512247999000 0.489992485670 -0.936368988845 0.015116916182 0.008763572207 0.017393072702 0.004093619873 0.341990562795 -1.024365806808
4.513581111000 0.497530455068 -0.927175836826 0.015510028322 0.009210763539 0.017107068714 0.004089730717 0.343084828066 -1.025638661738
4.514914222000 0.503411349450 -0.928132271391 0.015963579245 0.009351163308 0.017288524755 0.004255228429 0.341522636514 -1.026716722468
4.516247333000 0.502054771810 -0.920005756938 0.016080790864 0.009002767079 0.017481784494 0.004187273115 0.339494075595 -1.027065650660
4.517580444000 0.487945538003 -0.921014792111 0.015465183071 0.009287786147 0.017793828566 0.004099762648 0.340848108310 -1.026971302350
4.518913555000 0.494483588683 -0.916586090327 0.016027683241 0.008672115970 0.017210913317 0.004501919692 0.341245029174 -1.028540797566
4.520246666000 0.485948958229 -0.930880108343 0.016153900646 0.008289980951 0.017858011107 0.004056066745 0.339319775287 -1.023998856291
4.521579777000 0.500411815520 -0.935022497988 0.016346602647 0.008612671777 0.017943545385 0.004617978376 0.337292556211 -1.021839051733
4.522912888000 0.492858913931 -0.928559123432 0.015661517710 0.009051662790 0.017318764884 0.004187210990 0.334713406895 -1.023930479849
4.524245999000 0.494987720656 -0.932897797305 0.015578397342 0.009410673460 0.017543131441 0.004322684598 0.334556585984 -1.024230172443
4.525579111000 0.491587459722 -0.919843510591 0.016111664687 0.009209897756 0.017229455376 0.004674899944 0.337657064012 -1.024699908668
4.526912222000 0.492875040923 -0.928602902260 0.016704818706 0.009320763996 0.017222129639 0.004601109168 0.338745199696 -1.026798548946
4.528245333000 0.496444829169 -0.931138555598 0.015811093641 0.009146589592 0.017793981079 0.004954337805 0.328949524066 -1.027430462915
4.529578444000 0.495318741756 -0.922875348081 0.015768690873 0.008007200349 0.017381289236 0.004864093312 0.332099623917 -1.022562504763
4.530911555000 0.485425773557 -0.911772030638 0.016137958571 0.008343191869 0.017548967711 0.005221824852 0.334006935600 -1.019213378525
4.532244666000 0.490343296746 -0.925379785926 0.016465370397 0.009357939258 0.017732440111 0.005197757661 0.335284193723 -1.024698326651
4.533577777000 0.498022924528 -0.922374283370 0.016160379385 0.008696632998 0.017727517861 0.005060700664 0.331351287226 -1.022161747207
4.534910888000 0.494133982557 -0.926186437673 0.016305000726 0.008860353707 0.017566566883 0.004977792938 0.329049166643 -1.019006000642
4.536243999000 0.489784895211 -0.909798496617 0.016369951463 0.008512143793 0.017362624327 0.005222033723 0.332155075024 -1.023928012353
4.537577111000 0.499039813404 -0.920369851242 0.016874732109 0.007948470223 0.017611367209 0.005582714746 0.330703984782 -1.025994676904
4.538910222000 0.493022720350 -0.923379942402 0.016777475338 0.008544614820 0.017318377255 0.005448755890 0.323422910341 -1.023595675126
4.540243333000 0.487231483998 -0.928456246260 0.017235656728 0.008407822689 0.017704637910 0.005440941027 0.326736312795 -1.024127186105
4.541576444000 0.486893004406 -0.921630351247 0.016998724056 0.008793083958 0.017107172962 0.005502736741 0.322243932720 -1.025343791371
4.542909555000 0.498316899506 -0.921383196166 0.017258088381 0.007929426314 0.017682786235 0.005992900695 0.329607669857 -1.022513048858
4.544242666000 0.494106279117 -0.923017742321 0.017407386203 0.008980224807 0.017782296522 0.005711268041 0.327044350242 -1.026078584242
4.545575777000 0.485552194163 -0.924671448601 0.018134742776 0.008701339358 0.017654738072 0.005855975634 0.324342081875 -1.028821195941
4.546908888000 0.497114161285 -0.916930890772 0.018045953631 0.008000490292 0.017464410089 0.006097236959 0.325609617733 -1.035585350868
4.548241999000 0.494218348863 -0.922046952975 0.017980524970 0.008109304476 0.017688278532 0.006012950707 0.312922455422 -1.031808508380
4.549575111000 0.488452957703 -0.924375430621 0.017471128706 0.007985805134 0.017654823619 0.006464126593 0.317537921848 -1.031887998066
4.550908222000 0.482870311790 -0.919193162041 0.017539041245 0.007893762792 0.017693184981 0.006370962938 0.318307582645 -1.025166468230
4.552241333000 0.488220888819 -0.922420966478 0.018670921141 0.008130511821 0.017805630074 0.005924882412 0.318413331174 -1.033023330524
4.553574444000 0.483315406309 -0.924529397798 0.018777220922 0.007841058270 0.017942549342 0.006864860688 0.316751470873 -1.038640409515
4.554907555000 0.489616090860 -0.918189846512 0.018181040446 0.008785761453 0.017893333459 0.006792061917 0.322230441391 -1.042108371926
4.556240666000 0.485901237420 -0.924228938830 0.018523124144 0.007776350224 0.017743518975 0.007076868897 0.317252066008 -1.035137874628
4.557573777000 0.486570012839 -0.923006904122 0.018721341888 0.007928144252 0.017966083267 0.007258957627 0.313687400610 -1.042337526823
4.558906888000 0.486345984146 -0.919464776683 0.018811557488 0.008483135920 0.017381815388 0.007231039762 0.311018285395 -1.023262262387
4.560239999000 0.484852856000 -0.922155473495 0.019757052850 0.008028775866 0.017456241976 0.007554041547 0.313406417632 -1.039767636381
4.561573111000 0.486197734286 -0.921510703704 0.019205791165 0.007342986184 0.017589466933 0.007570549278 0.304638474849 -1.032978091978
4.562906222000 0.481360660780 -0.922897611176 0.019001656901 0.008661742956 0.017606207306 0.007726178792 0.310771351374 -1.037092588386
4.564239333000 0.487809230955 -0.922122630018 0.019908646345 0.007405309413 0.017691720080 0.008213405084 0.299904624335 -1.034463851963
4.565572444000 0.484493564321 -0.919800141545 0.019244843538 0.007936471268 0.017598631919 0.008129446772 0.306123757932 -1.035064841488
4.566905555000 0.480454000526 -0.920507716510 0.019974913886 0.007993851433 0.016971012814 0.008085041249 0.299314181540 -1.036122321374
4.568238666000 0.483370202917 -0.918362437732 0.020065145385 0.008235795788 0.017414239217 0.008442913556 0.306402666635 -1.034758250830
4.569571777000 0.479684218253 -0.921855177074 0.020401950270 0.008297551378 0.017170701812 0.009264667950 0.297015730112 -1.033615956524
4.570904888000 0.478297653008 -0.925143519884 0.020564494939 0.008086565982 0.017249704023 0.009281001834 0.314907560179 -1.047253880902
4.572237999000 0.481113223476 -0.922690191153 0.019591405314 0.008086716799 0.017160671025 0.009464421711 0.300120341905 -1.031037240773
4.573571111000 0.481975904915 -0.922632756544 0.020423665804 0.008143256034 0.017345637887 0.009730090195 0.289312893644 -1.037935916868
4.574904222000 0.477801555603 -0.920498407953 0.020396406701 0.008100380670 0.017056560749 0.009965806990 0.289252958935 -1.044793763662
4.576237333000 0.480546563559 -0.922680046995 0.019937234537 0.006950085075 0.016702173253 0.010338065272 0.288951339781 -1.022733863355
4.577570444000 0.477332416041 -0.923201693905 0.020802551623 0.008320408711 0.016758599504 0.010662147982 0.292889424519 -1.033637772211
4.578903555000 0.480323520412 -0.922068526048 0.021596699096 0.007271171040 0.016075638494 0.011700634156 0.302331823923 -1.038958014532
4.580236666000 0.477699635199 -0.923146053186 0.021679439177 0.007062891694 0.016994836256 0.012110250681 0.294992203107 -1.043873993585
4.581569777000 0.476896228913 -0.920346871187 0.021545135597 0.007802325161 0.016376011587 0.011571266602 0.288668535112 -1.046668096544
4.582902888000 0.474270018736 -0.921850588411 0.021624654399 0.007323062314 0.016336361940 0.012444764760 0.290582377463 -1.034859432813
4.584235999000 0.474951568161 -0.920696734503 0.021741232111 0.006967054337 0.015687363806 0.012878425416 0.284907762755 -1.046094109481
4.585569111000 0.473135271562 -0.922931788642 0.022055262270 0.006506997301 0.016086325271 0.013025058271 0.271520219765 -1.045475518228
4.586902222000 0.472428625893 -0.924247024341 0.021649775519 0.007105725650 0.015927839588 0.013580244775 0.283517910156 -1.043732483431
4.588235333000 0.471326065027 -0.922823347524 0.020710108350 0.007798251146 0.015731116982 0.014394173794 0.286988516256 -1.054405451779
4.589568444000 0.469321536322 -0.921369082915 0.021765651490 0.007652723619 0.015128343446 0.014018815918 0.289744096267 -1.045985228327
4.590901555000 0.470291446654 -0.924612469428 0.022087426221 0.006791046652 0.014959396130 0.015114240338 0.286410269269 -1.035446425614
4.592234666000 0.470059129645 -0.923808489239 0.021910906638 0.008121005920 0.014916456225 0.015267815128 0.287839522312 -1.037288802287
4.593567777000 0.472412199821 -0.921174943190 0.022140467596 0.006410153215 0.014823733537 0.016184566724 0.283345243979 -1.050702964737
4.594900888000 0.470586990028 -0.923867739950 0.022476317058 0.007065230494 0.015125297992 0.016665950623 0.283218959388 -1.058354927277
4.596233999000 0.463771471701 -0.919484039788 0.021360030160 0.007843363499 0.014136167440 0.016669629594 0.274829284868 -1.041249366278
4.597567111000 0.465675707739 -0.922666260525 0.022071076450 0.007168550702 0.013960682693 0.017027480548 0.283015938744 -1.052410446983
4.598900222000 0.467533550716 -0.925997743600 0.021581067609 0.007930186713 0.013778279436 0.017702531501 0.276338065695 -1.051812842182
4.600233333000 0.474172139894 -0.919949112641 0.022661365214 0.006648871755 0.013250419845 0.017416007616 0.265569067027 -1.036540948909
4.601566444000 0.472741944855 -0.925214867671 0.023816793715 0.006980751059 0.013035053613 0.018323360784 0.276589551399 -1.054049483717
4.602899555000 0.473899845155 -0.923207059028 0.023633063851 0.006221417577 0.012636407525 0.018752095791 0.271363618428 -1.051639745714
4.604232666000 0.464743535342 -0.925887697854 0.023427718966 0.007111635990 0.012653123300 0.018868169165 0.281206649595 -1.026165771975
4.605565777000 0.467014037574 -0.920559055628 0.023104133874 0.006160786838 0.013040522792 0.019422961083 0.281036825773 -1.052793430211
4.606898888000 0.467603439818 -0.916110226526 0.023167571720 0.006816983416 0.012337290264 0.020340788243 0.286303289931 -1.051032873545
4.608231999000 0.473000643872 -0.919376351255 0.023271676393 0.007040463095 0.011395558172 0.020360138292 0.272360112453 -1.056360823584
4.609565111000 0.469829723606 -0.921210598788 0.022665175276 0.005500769454 0.012220134042 0.020759258100 0.271716979626 -1.055376843451
4.610898222000 0.474378796032 -0.926708921659 0.021695804359 0.006737517953 0.012627002062 0.020368671704 0.263524380514 -1.046383183968
4.612231333000 0.465101850220 -0.928788208458 0.022291403843 0.006809478859 0.011940067263 0.020841896040 0.271886511767 -1.042397502451
4.613564444000 0.463030279206 -0.931281056453 0.024490698854 0.005890633406 0.011857907808 0.020036862592 0.264859009762 -1.051187899328
4.614897555000 0.455400983974 -0.932011098052 0.022451695322 0.006734514617 0.011778793741 0.021315454977 0.267573670550 -1.049400796480
4.616230666000 0.465800602011 -0.909988607389 0.023733134430 0.007488274504 0.011201225674 0.020615025863 0.271959595656 -1.046311692224
4.617563777000 0.450507632122 -0.932771222835 0.023981274879 0.005687877378 0.012124996535 0.021769590398 0.264857099581 -1.049181416311
4.618896888000 0.470860601618 -0.928108760912 0.024275535637 0.007140448676 0.011162664642 0.021422091032 0.266936513404 -1.055822212161
4.620229999000 0.453556882422 -0.921844996751 0.024807006831 0.006218842980 0.012221066781 0.020538515312 0.268147231330 -1.052814363095
4.621563111000 0.456526304531 -0.907100888964 0.022743626616 0.007526515830 0.012703980030 0.020306555206 0.261224031831 -1.048274629319
4.622896222000 0.447133505987 -0.925476629961 0.023583518722 0.007319805804 0.013024803081 0.019328939451 0.262217781852 -1.048856700979
4.624229333000 0.446327621241 -0.931073246901 0.024260157908 0.007523911744 0.012851483834 0.020164574184 0.271243931306 -1.044769503579
4.625562444000 0.467383208756 -0.924799996405 0.024035046857 0.006843538428 0.012964026810 0.020404659956 0.263445353190 -1.041929703726
4.626895555000 0.452730955197 -0.929253346209 0.023747552415 0.007118517751 0.013106613984 0.020089291261 0.255978942291 -1.044182080843
4.628228666000 0.457769511579 -0.924303267113 0.023719841110 0.007707683180 0.012834709157 0.020116249319 0.261380320799 -1.044557127409
4.629561777000 0.444423974162 -0.919479832104 0.024515351147 0.006001412070 0.014366656502 0.021624537167 0.261745686012 -1.046879541471
4.630894888000 0.457733298845 -0.927154416762 0.023676522704 0.006974800676 0.013586135060 0.019352422652 0.255271760035 -1.049712315122
4.632227999000 0.444905851605 -0.916330697967 0.024601791149 0.005949726076 0.014345101963 0.019231814346 0.258357204055 -1.045463200807
4.633561111000 0.452903992380 -0.924998640156 0.023715074932 0.005494906912 0.014515987684 0.019240280273 0.253188824864 -1.045783092555
4.634894222000 0.441861284434 -0.930031385959 0.023244010287 0.005129924044 0.014690262776 0.019274675043 0.254894878616 -1.048375020731
4.636227333000 0.452124752334 -0.923761477478 0.024719701558 0.005972463753 0.014922979744 0.019550703520 0.255342267658 -1.048198324412
4.637560444000 0.451933928970 -0.934050296516 0.023496348465 0.007637614913 0.015408087062 0.019382031033 0.250122437656 -1.044771546266
4.638893555000 0.452144747968 -0.913678531335 0.022101513943 0.006591815990 0.015515551550 0.018725130357 0.253923943216 -1.043282189321
4.640226666000 0.446551251588 -0.917126411677 0.023157613335 0.006920422948 0.014729900355 0.019174752902 0.257551922146 -1.043449866156
4.641559777000 0.439746254656 -0.927580812171 0.025232071985 0.005774679655 0.015898952666 0.019919096716 0.256302164327 -1.049461475758
4.642892888000 0.450938029122 -0.919709134865 0.024145617013 0.004347492935 0.016044617192 0.019790164932 0.251483904593 -1.044115943688
4.644225999000 0.441204747482 -0.925041388862 0.024064134150 0.005099048256 0.016167181961 0.020178335080 0.255024855846 -1.044315919983
4.645559111000 0.450674309942 -0.922423007556 0.023282934946 0.007275392925 0.017176516185 0.019068054188 0.258899749009 -1.040245799649
4.646892222000 0.437569222239 -0.927836472427 0.024381050341 0.005326570960 0.016906605103 0.018896180260 0.252843343625 -1.045442902867
4.648225333000 0.425817128392 -0.946790259002 0.023954761590 0.004527002973 0.016937192996 0.019887863381 0.253498456913 -1.043866335139
4.649558444000 0.446880798951 -0.923141225432 0.024128958938 0.006970663048 0.017998133123 0.019762012754 0.254435993675 -1.050595476155
4.650891555000 0.447862206336 -0.914390144580 0.023664523164 0.004563020412 0.018480436612 0.019333306489 0.256799542897 -1.045460049644
4.652224666000 0.434148503329 -0.922794116148 0.024496304113 0.005252888984 0.018424955682 0.018967236242 0.242639208486 -1.049788191676
4.653557777000 0.438764226939 -0.931031146823 0.024146572334 0.004802953560 0.019403651968 0.020494916230 0.247667534810 -1.051786703036
4.654890888000 0.441705253246 -0.921800210145 0.023259853540 0.005258429846 0.019744520988 0.019068519133 0.249153060069 -1.048451764376
4.656223999000 0.432845367847 -0.930272368644 0.023473618544 0.006590973394 0.018631901677 0.020078044927 0.247631848753 -1.042295979852
4.657557111000 0.448778290138 -0.920918805057 0.023814576683 0.003681207290 0.021016026429 0.019697211392 0.237228310866 -1.054373197971
4.658890222000 0.450260746193 -0.929461993468 0.024258780754 0.004079521006 0.020392423534 0.020732914996 0.237224724502 -1.032040290212
4.660223333000 0.456538484847 -0.908322826966 0.022872088416 0.004025062766 0.021721971568 0.019717050960 0.253280830627 -1.049508489865
4.661556444000 0.423175694596 -0.948370275074 0.022163510782 0.006135688918 0.021627962097 0.020210216867 0.242342184330 -1.031479946539
4.662889555000 0.457283898769 -0.920401812685 0.023018426751 0.004924781652 0.021247392242 0.020290415742 0.241304943272 -1.042819655944
4.664222666000 0.440686784325 -0.925351869838 0.023083207879 0.003762160809 0.021466862781 0.021033474909 0.239944152191 -1.040361130616
4.665555777000 0.433871354255 -0.917305871247 0.025750509917 0.004951781239 0.021667624330 0.020913974049 0.248140621357 -1.041291029338
4.666888888000 0.438125012861 -0.924779901047 0.023878425644 0.007456896091 0.022102858337 0.020705226634 0.236512403490 -1.034014034566
4.668221999000 0.456019038239 -0.922627055530 0.025268263354 0.006790709422 0.021101834711 0.019986685451 0.233797787664 -1.014388842035
4.669555111000 0.438742546172 -0.919849027518 0.024981133994 0.003774294753 0.022716895782 0.021417660396 0.245149331539 -1.054651091370
4.670888222000 0.452737972812 -0.904120132384 0.023154622024 0.005493533232 0.021681097313 0.021771140850 0.245209716668 -1.030288350895
4.672221333000 0.452705818333 -0.919097329616 0.024450809234 0.007520998088 0.022890060025 0.020998413356 0.243774905919 -1.041650262847
4.673554444000 0.445417284260 -0.929888166302 0.024130375031 0.007559679107 0.022033302244 0.021821741996 0.253995924165 -1.025789747651
4.674887555000 0.440189707262 -0.913102080087 0.023548556578 0.004229899674 0.022614365280 0.020844288607 0.245927467183 -1.040948372358
4.676220666000 0.424885243016 -0.920885685515 0.022640129014 0.004106802336 0.023359652209 0.021069190523 0.246181772748 -1.036252373510
4.677553777000 0.433230971372 -0.913585816074 0.021693890142 0.007310399243 0.022190796833 0.021346913286 0.242640736221 -1.025889871780
4.678886888000 0.442013872590 -0.918815595661 0.023834501879 0.006811632314 0.023270859589 0.021472162238 0.238374645361 -1.040122852126
4.680219999000 0.440403536133 -0.920044852415 0.025204886062 0.005846602341 0.023869339731 0.020532671444 0.222742758039 -1.026543388547
4.681553111000 0.430128057945 -0.914475307701 0.022480257183 0.006172206822 0.023791926937 0.021146501268 0.233882515088 -1.040007493188
4.682886222000 0.425339909111 -0.937250369734 0.023904724935 0.007208974922 0.025009210595 0.021192104590 0.219144920164 -1.035576407441
4.684219333000 0.436805875715 -0.925604292146 0.021904783845 0.007788916091 0.024644179558 0.021061534950 0.230897701238 -1.030684163368
4.685552444000 0.436961054566 -0.906030428188 0.022132900318 0.008134118564 0.023124340172 0.021474845267 0.245613108275 -1.028392907371
4.686885555000 0.434661461043 -0.918031225897 0.025311490413 0.006595551061 0.025178344242 0.021951961908 0.261327390856 -1.040570523556
4.688218666000 0.445340115494 -0.912641866334 0.022591571934 0.006127639013 0.025579518432 0.020817392655 0.240613006117 -1.036696246536
4.689551777000 0.431431365784 -0.920569579523 0.023072931772 0.004350992037 0.024885399410 0.020120281237 0.237865766062 -1.032289779755
4.690884888000 0.430596485590 -0.915384149461 0.021431434215 0.007114098771 0.026308657554 0.021768319557 0.236569264143 -1.019119214482
4.692217999000 0.449566918827 -0.915801706332 0.023960767028 0.008116531034 0.025748657147 0.022419372833 0.246750312839 -1.034185159017
4.693551111000 0.444895846262 -0.916767250383 0.022104267344 0.006323799143 0.026672424272 0.021748187993 0.238088677010 -1.035127824889
4.694884222000 0.418169005377 -0.905876615122 0.021966869930 0.006167892435 0.025708782566 0.021919700538 0.241820639814 -1.037791761477
4.696217333000 0.449448869836 -0.909195665042 0.024506132721 0.006776471019 0.025189001445 0.022641011406 0.249823094380 -1.045366682990
4.697550444000 0.442988440763 -0.928959584165 0.024135330070 0.006272443466 0.025981995507 0.021495784161 0.244253920856 -1.018266461928
4.698883555000 0.430177985038 -0.933570251742 0.023464879625 0.007025229576 0.026441389183 0.021419894896 0.223610008252 -1.029385116081
4.700216666000 0.430539536589 -0.911492542452 0.023907809412 0.006632278955 0.024426267200 0.020799496849 0.226214129985 -1.025738260684
4.701549777000 0.424665046099 -0.917627178042 0.022999201356 0.008478120164 0.025001423584 0.021115976223 0.235054982530 -1.039767022556
4.702882888000 0.445279679002 -0.932073552997 0.021565492410 0.006439929565 0.026810494083 0.020857148359 0.225167185819 -1.054179729030
4.704215999000 0.422611996691 -0.922543765219 0.021768374889 0.007776383390 0.024502695934 0.021138990498 0.241108273657 -1.025208289724
4.705549111000 0.423618768443 -0.913209816316 0.023862250848 0.007051437182 0.025394674692 0.020691960273 0.233978516008 -1.028852835663
4.706882222000 0.437884011504 -0.919403682788 0.023819622429 0.008474718121 0.025264385763 0.021840795357 0.242086304487 -1.020251899159
4.708215333000 0.441902960295 -0.923616509393 0.021833694171 0.007907430903 0.025351633040 0.021588949839 0.229086449519 -1.025441585526
4.709548444000 0.420272931097 -0.927155925563 0.021945375904 0.008373812030 0.025828611120 0.021456432671 0.237994400637 -1.023181718788
4.710881555000 0.424853549948 -0.932496167529 0.023573564836 0.007446357023 0.025762907186 0.020451636414 0.210368879615 -1.027831740017
4.712214666000 0.436655531871 -0.925692880091 0.021402234830 0.006788669930 0.025409330475 0.020252555288 0.248037433335 -1.044954494018
4.713547777000 0.428650404806 -0.929626289372 0.023516759650 0.008049755427 0.025254321292 0.020302307321 0.223431524806 -1.042114318897
4.714880888000 0.434808979290 -0.924615057066 0.022987411439 0.007610324869 0.024759116863 0.021087000918 0.261894232814 -1.017745855720
4.716213999000 0.425861844480 -0.918477995802 0.020921539305 0.006908735734 0.025521950512 0.020559897377 0.238567894397 -1.016263670691
4.717547111000 0.438400528959 -0.928462216569 0.023654179295 0.006558957717 0.024593565744 0.020561384180 0.248271549134 -1.034071194180
4.718880222000 0.427651153279 -0.928018129966 0.021131522234 0.006845884969 0.024659704150 0.020075582956 0.263442369464 -1.012276028259
4.720213333000 0.434838172049 -0.916692143770 0.022583433232 0.007164053138 0.025262713411 0.020039953816 0.250105087487 -1.021449688509
4.721546444000 0.430331779137 -0.930220187264 0.023800509159 0.007995854110 0.025055577258 0.020122471973 0.225751366120 -1.020461779232
4.722879555000 0.436845714364 -0.909428897842 0.022306564227 0.008338729888 0.025819880628 0.020694083164 0.222352325938 -1.032964833159
4.724212666000 0.415513827353 -0.915403025967 0.023505924845 0.006861156199 0.023956122723 0.018727291079 0.234323328156 -1.017755013955
4.725545777000 0.425826877533 -0.918584726679 0.022253554656 0.005917267443 0.025193712126 0.019628093315 0.255826138898 -1.001750556633
4.726878888000 0.425309471060 -0.922228815738 0.020792496298 0.007934787437 0.024273042730 0.018139547142 0.228304895583 -1.020243871197
4.728211999000 0.431520631841 -0.917087540187 0.021936640677 0.008607464017 0.023935645931 0.018994524302 0.229716142710 -1.010040309619
4.729545111000 0.423606278399 -0.915034872824 0.022447141038 0.006708538778 0.024441141950 0.018118659265 0.249503461669 -1.025116405721
4.730878222000 0.424576187233 -0.918746974013 0.021495157126 0.006628205356 0.024143360196 0.018293927394 0.234897207958 -1.023273249134
4.732211333000 0.425975562734 -0.925916867801 0.020335244639 0.006984205591 0.023344570164 0.017798664789 0.226148095144 -1.019722133324
4.733544444000 0.424296825401 -0.920731016033 0.021419507018 0.007741500199 0.022969487016 0.017242992810 0.237874083724 -1.020381801936
4.734877555000 0.430535928680 -0.919348398161 0.021648729526 0.008108073991 0.023049853817 0.016347844919 0.235099092164 -1.028210991456
4.736210666000 0.429410220575 -0.924001532819 0.020530782222 0.006890035134 0.023483086049 0.016754232803 0.241252990958 -1.023563781887
4.737543777000 0.433046119627 -0.922943755123 0.020152667900 0.008609934854 0.023568285992 0.016357669537 0.242118592995 -1.023836714389
4.738876888000 0.425502491216 -0.921151936307 0.021189394658 0.008313280130 0.023968886721 0.016106304223 0.246647621602 -1.019450175092
4.740209999000 0.428854529941 -0.922966627756 0.021050269654 0.005282655200 0.022336355126 0.015291158091 0.241984071571 -1.031643689683
4.741543111000 0.429668594018 -0.922660674450 0.021030884254 0.007091531520 0.022646900231 0.015022679547 0.244135055439 -1.015694129288
4.742876222000 0.425920137497 -0.923346952869 0.020665373087 0.007435142810 0.022232198807 0.014736829798 0.239329866319 -1.028298848470
4.744209333000 0.426517850646 -0.926641840152 0.021196633687 0.005431928746 0.023318537436 0.014939979050 0.228993282394 -1.022984284181
4.745542444000 0.429945304448 -0.918278407136 0.021908965760 0.008290882328 0.021612725231 0.014983454107 0.247995429398 -1.021163920955
4.746875555000 0.429364871390 -0.920565703904 0.022583702840 0.006529653199 0.023422603313 0.013246001703 0.243394550650 -1.025348654440
4.748208666000 0.431547138737 -0.921614279146 0.022037076696 0.007022754484 0.022256393814 0.014594327545 0.245047030477 -1.023681897889
4.749541777000 0.434467232847 -0.925803448358 0.021317420158 0.006722468207 0.022385026579 0.012990888379 0.249264082301 -1.026654210433
4.750874888000 0.431134917221 -0.925531233689 0.020332666222 0.007557569165 0.022062472131 0.013178320628 0.235274210526 -1.022243011390
4.752207999000 0.434603651221 -0.923386021516 0.021413969972 0.006780455233 0.022579254779 0.012962745571 0.246327473211 -1.024646233107
4.753541111000 0.432409155059 -0.925741868112 0.020671647809 0.008407508336 0.022857005164 0.013120642173 0.247680335536 -1.016792597922
4.754874222000 0.429813673795 -0.926473828181 0.022133797624 0.006593163480 0.023206459064 0.012404352520 0.240479006957 -1.023095127571
4.756207333000 0.435513634375 -0.927368679017 0.022513163223 0.007717848583 0.022168696079 0.012920136426 0.242759253406 -1.017368235913
4.757540444000 0.435088657479 -0.927971199641 0.021920480516 0.006789709374 0.022733882001 0.012217608077 0.239521569508 -1.022622097990
4.758873555000 0.433381393331 -0.931873896341 0.021382654562 0.007996270626 0.023189380264 0.011992720610 0.242814255569 -1.017376741025
4.760206666000 0.441352085705 -0.932143613969 0.021474141182 0.007544941009 0.022623387169 0.011400924551 0.242884449369 -1.020577061699
4.761539777000 0.436079248650 -0.928470907410 0.021700331124 0.007548111228 0.022661890708 0.011727220890 0.242879162486 -1.019531373562
4.762872888000 0.437731297839 -0.925608438723 0.021908412586 0.008428022474 0.022541369081 0.011880603258 0.247435916310 -1.020460350997
4.764205999000 0.436152260189 -0.928108859437 0.021734774124 0.006810738843 0.023206895870 0.011702131827 0.244938297844 -1.021984627410
4.765539111000 0.441898454315 -0.930359512613 0.022263863168 0.006673354764 0.023136512824 0.011694472494 0.243530981410 -1.015933880468
4.766872222000 0.436314785361 -0.927503884943 0.022528731260 0.007690357736 0.022827188300 0.011935148321 0.240772160141 -1.020695514249
4.768205333000 0.439149681909 -0.929596363873 0.022280710229 0.009019294224 0.023260092588 0.011571989898 0.242331200696 -1.019482495323
4.769538444000 0.439337169405 -0.925235350734 0.021031261241 0.007770284854 0.023388314098 0.011179525225 0.242769446789 -1.019714155409
4.770871555000 0.443012993190 -0.926328932943 0.021226983083 0.007356951264 0.023281843275 0.011225044866 0.249142559402 -1.020417311353
4.772204666000 0.446203838709 -0.927816548963 0.022362136508 0.008535638128 0.023461362317 0.010887420592 0.248384933658 -1.022221625346
4.773537777000 0.442882533520 -0.930607576158 0.021768642760 0.008184162762 0.024377938601 0.011353404542 0.243699804938 -1.018876294492
4.774870888000 0.449858260810 -0.928835629019 0.021393043882 0.008000372145 0.023711618843 0.011127082717 0.240770782300 -1.023213154808
4.776203999000 0.436425645672 -0.921320116210 0.022043092202 0.008484717372 0.023348437582 0.010966499157 0.244520668162 -1.023475434305
4.777537111000 0.447805559809 -0.927669910191 0.022160655991 0.008603567544 0.023383171885 0.011320449701 0.244273403258 -1.020846054087
4.778870222000 0.452772937758 -0.920747854657 0.022020995576 0.008765261292 0.023693309747 0.011172442704 0.240183756837 -1.019942828478
4.780203333000 0.450460736192 -0.931624768969 0.021734371474 0.008657539600 0.023937263858 0.011333532600 0.235384793376 -1.020324350052
4.781536444000 0.443837897351 -0.930675556046 0.022190234542 0.008742856059 0.023932998566 0.010801538881 0.251007572287 -1.018847664037
4.782869555000 0.445807781808 -0.925469433064 0.021766723878 0.007273207736 0.023842362053 0.011115790202 0.243824844969 -1.019591226644
4.784202666000 0.446681473297 -0.937464884024 0.022435491119 0.008526853593 0.023809233724 0.010947814788 0.240189636342 -1.020642170691
4.785535777000 0.446833548855 -0.934583745317 0.022325600037 0.008600119226 0.023952182721 0.011117622122 0.247903573340 -1.026074010804
4.786868888000 0.446045358403 -0.920399104503 0.022734650992 0.007490638184 0.023529168296 0.011542692002 0.251491882048 -1.018615164080
4.788201999000 0.442697082487 -0.933165960051 0.022720992165 0.008530878952 0.023527132764 0.011509634041 0.252734505639 -1.022003542293
4.789535111000 0.446220411033 -0.932595183097 0.023044460002 0.007544909082 0.023945219893 0.011820299887 0.247152298641 -1.022696839164
4.790868222000 0.449895917350 -0.919002050009 0.022797231692 0.007386763353 0.023652159878 0.011758502477 0.254155686966 -1.024227528010
4.792201333000 0.454595912260 -0.929713709285 0.022838187228 0.008318118670 0.023781773585 0.011269360684 0.239736244517 -1.024920798021
4.793534444000 0.444474235540 -0.924566309880 0.022252918122 0.007653729842 0.023902092410 0.010966670871 0.241880119485 -1.016280567446
4.794867555000 0.444908056729 -0.930686025633 0.021645182706 0.008104069870 0.023770720103 0.011300479331 0.241545326575 -1.021815015101
4.796200666000 0.441656293384 -0.926735034363 0.021866179341 0.008377603180 0.023394828328 0.010763708852 0.244818901919 -1.016607382766
4.797533777000 0.445283818646 -0.937273173616 0.022402825322 0.007990860474 0.023417278416 0.011144270855 0.243477389872 -1.027852517036
4.798866888000 0.442693619316 -0.921191727858 0.022938530840 0.007206614367 0.023441850850 0.011083230373 0.246543560899 -1.020102682540
4.800199999000 0.460226796598 -0.935940076032 0.022567756832 0.008847303552 0.023638988099 0.011780120592 0.250529241069 -1.020154663978
4.801533111000 0.456494083211 -0.917140274508 0.022701308878 0.008641731017 0.023497167885 0.011599641490 0.240293887633 -1.021765166363
4.802866222000 0.451682779712 -0.924104118317 0.022569677003 0.007568377849 0.023163544933 0.010522981636 0.246701007793 -1.027852144475
4.804199333000 0.447684241140 -0.921539503451 0.023346917931 0.007882117194 0.023608150587 0.010682850912 0.238362187187 -1.017657602180
4.805532444000 0.439569922616 -0.921323558230 0.022659122980 0.007716580452 0.023663068292 0.011159164543 0.244606108215 -1.029875085278
4.806865555000 0.452199653574 -0.928350466634 0.023496304401 0.008413791566 0.023777431202 0.011451071310 0.252908466824 -1.028278742421
4.808198666000 0.446991049102 -0.915059370283 0.021881988104 0.008576587776 0.023158865278 0.010797311492 0.239737977274 -1.021880448015
4.809531777000 0.461770126322 -0.924770230728 0.023069198727 0.007952089806 0.023405639058 0.011576859541 0.251547611233 -1.035373639919
4.810864888000 0.444894092901 -0.923669634654 0.023386267067 0.008347618235 0.023687961892 0.011255706108 0.240130438214 -1.026837624375
4.812197999000 0.450251052960 -0.919789206110 0.023580862110 0.008249738765 0.023377648326 0.010823435011 0.239676005700 -1.022404322324
4.813531111000 0.456440523723 -0.916984552016 0.023443310862 0.008433341144 0.023572740822 0.011632375830 0.248639969265 -1.035267191508
4.814864222000 0.447547363532 -0.916209080746 0.023788249714 0.009222860030 0.023400479185 0.011178821598 0.235894860903 -1.025076792563
4.816197333000 0.442297525846 -0.923177137346 0.023241386858 0.008883978484 0.023071355299 0.011075276434 0.232391330602 -1.020627233259
4.817530444000 0.450778597768 -0.922604010903 0.022882112259 0.008782786090 0.023574715689 0.010875187236 0.247507337452 -1.005997119342
4.818863555000 0.450624378813 -0.933446913654 0.024278917596 0.009327498459 0.023700320004 0.010906842517 0.243663482925 -1.045573279782
4.820196666000 0.441214572304 -0.934407189251 0.024177800591 0.008738915699 0.023522101036 0.010854905679 0.236786041010 -1.019731972639
4.821529777000 0.451730842861 -0.919311042245 0.023415504529 0.008524071076 0.023393400589 0.011086097445 0.251529955893 -1.008289920030
4.822862888000 0.448861803936 -0.927697582216 0.023261072826 0.008814992718 0.023348279484 0.011156856196 0.237761791592 -1.023573757401
4.824195999000 0.459361413553 -0.918401416134 0.023287199902 0.009809097376 0.023470675239 0.011089161247 0.237398293783 -1.032313727793
4.825529111000 0.446825976402 -0.918187919002 0.023799211160 0.009391751817 0.023252756546 0.010810736287 0.231078551464 -1.018171690837
4.826862222000 0.453658194300 -0.923829712329 0.023234155079 0.009310267342 0.023275744815 0.010588770305 0.240302725864 -1.034973568023
4.828195333000 0.444914117363 -0.912890851817 0.023562446134 0.008622281431 0.023790212808 0.010584470649 0.236326666211 -1.006169754763
4.829528444000 0.452988143559 -0.906950563157 0.024190396025 0.009844989499 0.023420525854 0.010938530823 0.255841550744 -1.018782255888
4.830861555000 0.453347264757 -0.921607674369 0.023517430765 0.009017091255 0.023750799658 0.010632472278 0.246341724723 -1.018441422860
4.832194666000 0.448281675785 -0.924428035635 0.023461400809 0.009480979664 0.024344265896 0.010304277942 0.236400148299 -1.029074675173
4.833527777000 0.428859853187 -0.915915204282 0.024344579884 0.009545610679 0.023623338457 0.011419272268 0.235846784348 -1.021860984388
4.834860888000 0.426057319397 -0.930952557304 0.024599808232 0.009419965931 0.023982503995 0.010798126185 0.235858761286 -1.017075575233
4.836193999000 0.450778732854 -0.926646160904 0.024391651288 0.010042294215 0.023559368285 0.011091791452 0.241954686624 -1.019931871820
4.837527111000 0.447586496368 -0.925489618957 0.023511058583 0.009153601161 0.024117332617 0.011041200074 0.236488415650 -1.021037086285
4.838860222000 0.436884874419 -0.922258103681 0.024363887359 0.009936416464 0.024153911400 0.010634667988 0.232385801660 -1.024087038540
4.840193333000 0.441998182999 -0.929258990291 0.024775873592 0.009525443072 0.023956311667 0.010916245380 0.236167766578 -1.021325631837
4.841526444000 0.444990522816 -0.923879278233 0.023777393091 0.009789713189 0.024016265716 0.010618115491 0.225281241875 -1.016379707686
4.842859555000 0.455797350969 -0.919734938837 0.023655116846 0.010190687199 0.024130175864 0.010235835802 0.229605163226 -1.020248475754
4.844192666000 0.440919412997 -0.920347969844 0.024452295514 0.009108324302 0.024240576119 0.010668557083 0.229930309448 -1.036142935340
4.845525777000 0.440234399935 -0.925719614314 0.024450071729 0.008787899615 0.024291394654 0.010350412695 0.225346869503 -1.025681227316
4.846858888000 0.439535644272 -0.913529153499 0.024668478448 0.009863347022 0.024519215341 0.010461746095 0.230075329550 -1.030732212439
4.848191999000 0.443295664931 -0.920287245386 0.024036786383 0.008774606597 0.024449174720 0.010322336959 0.224684559809 -1.026647531362
4.849525111000 0.438517959505 -0.929287469661 0.024977582631 0.009793578744 0.024701310793 0.010679362189 0.232887288964 -1.026208230493
4.850858222000 0.443167486948 -0.925483983770 0.024640378239 0.009713279058 0.024807276036 0.010518630259 0.224299712417 -1.031043071554
4.852191333000 0.438279340400 -0.928687489206 0.024916121152 0.010226701585 0.024706359822 0.010863504354 0.226485949552 -1.026229976884
4.853524444000 0.435902937645 -0.924897761064 0.024291085668 0.009291651408 0.024733514871 0.010232059749 0.218183180651 -1.027109301774
4.854857555000 0.439129248812 -0.921434132235 0.024338717911 0.009232560865 0.024607139478 0.010654047928 0.219186817987 -1.031978213312
4.856190666000 0.433436741989 -0.920905322320 0.024502241481 0.010350962280 0.024404250159 0.010315206662 0.224837042210 -1.027670624935
4.857523777000 0.434618938504 -0.919108245079 0.023944120734 0.009585711893 0.025054677381 0.010110143051 0.214620556759 -1.036852092734
4.858856888000 0.439071869284 -0.926637983661 0.024029620031 0.009277086257 0.024988427653 0.010863411969 0.217860238150 -1.035896028898
4.860189999000 0.437926195799 -0.926271861246 0.025493176746 0.009684543450 0.025356484642 0.010111711676 0.215436923635 -1.038395838009
4.861523111000 0.431628705789 -0.921094096899 0.024323137830 0.009651398559 0.025623917867 0.010064594260 0.218410243977 -1.034333245568
4.862856222000 0.435551686894 -0.923021909528 0.024786752978 0.010071237139 0.025235006428 0.010129855922 0.211030051000 -1.034236511790
4.864189333000 0.434892693684 -0.923795558326 0.024632562716 0.010729909784 0.024920846669 0.010610922101 0.214073024670 -1.035085007465
4.865522444000 0.435772256926 -0.921853780405 0.025052841371 0.009986948790 0.024823312594 0.010026498502 0.212351092732 -1.036006538795
4.866855555000 0.433376657719 -0.919610520293 0.024951972945 0.010095489070 0.024929438263 0.010406996481 0.205087591590 -1.036121747469
4.868188666000 0.432159907517 -0.920785094215 0.024564704715 0.010361497644 0.025066372053 0.010024447379 0.214123616342 -1.033204975342
4.869521777000 0.428116274729 -0.923455117343 0.024780008652 0.009680494668 0.025643494822 0.010138734701 0.209391154448 -1.037385760559
4.870854888000 0.431597278783 -0.925512008443 0.024526472089 0.008959795049 0.025273403606 0.009961045299 0.206854148713 -1.034053150741
4.872187999000 0.430385150809 -0.921485042529 0.023602581499 0.008955219680 0.025119629458 0.010260621793 0.204150017667 -1.037087193510
4.873521111000 0.429715248983 -0.920644617991 0.024989479059 0.010210493332 0.025576176356 0.009833374545 0.203872366085 -1.033481951501
4.874854222000 0.429193361472 -0.920465177530 0.024494168771 0.009624187216 0.025295492716 0.009701107558 0.206506757374 -1.039801708000
4.876187333000 0.426929098164 -0.919145562431 0.024580840740 0.008750006017 0.025524808635 0.009654549162 0.197571991759 -1.040671707965
4.877520444000 0.427804471452 -0.922495390936 0.024461854806 0.008742914251 0.025697379715 0.009437040898 0.199418722065 -1.041321306386
4.878853555000 0.427195350758 -0.922455438327 0.023625313212 0.009462506927 0.025923426489 0.009607554501 0.192320032026 -1.039834899912
4.880186666000 0.427923028945 -0.922676982235 0.024950546678 0.009847139500 0.026026054408 0.009837116819 0.197444196374 -1.033843404562
4.881519777000 0.427248246037 -0.923764755939 0.024277205556 0.010383618306 0.026110057448 0.010159849952 0.201110502786 -1.041440348612
4.882852888000 0.426976555777 -0.919701432848 0.023545740085 0.010313543996 0.025423319123 0.009758446938 0.200998886552 -1.035990807392
4.884185999000 0.432093233198 -0.921372302084 0.023945246605 0.010144429983 0.026138214815 0.009040298902 0.192470595460 -1.046104398543
4.885519111000 0.421423441175 -0.913389736029 0.024092909379 0.008516679288 0.025769446624 0.008918896657 0.196077798334 -1.041482163468
4.886852222000 0.417521907464 -0.915501035206 0.023194763595 0.009817235619 0.025953598876 0.008987866781 0.195464562579 -1.030798101117
4.888185333000 0.423927185017 -0.917504731905 0.023707334151 0.009591505182 0.025977996279 0.008995584677 0.190206453561 -1.022756399115
4.889518444000 0.426493464961 -0.916491282829 0.023421129824 0.009440751807 0.025365211736 0.008961625731 0.197469039780 -1.047378423566
4.890851555000 0.423279894389 -0.919902013046 0.023353994574 0.009660791274 0.025717387466 0.009118532883 0.192577719753 -1.036952008067
4.892184666000 0.422907375354 -0.919332656555 0.023685469619 0.009653181059 0.025093727169 0.008726401031 0.177623524325 -1.034643349218
4.893517777000 0.420132030299 -0.909811370685 0.022865706858 0.009081140911 0.025589376033 0.008835167545 0.189320512265 -1.042505648247
4.894850888000 0.421263071112 -0.920253467951 0.023396968094 0.008986635007 0.026098761957 0.009047504427 0.180789182385 -1.053639614365
4.896183999000 0.414441003176 -0.913578363015 0.023165202814 0.009409601732 0.025116085388 0.008361553764 0.191364899712 -1.038772214764
4.897517111000 0.428571975264 -0.909932824160 0.023325594431 0.008432779138 0.025495935151 0.008062801807 0.187202785357 -1.046278407256
4.898850222000 0.420377413226 -0.921408271636 0.023340211334 0.009706240456 0.025570485323 0.008423112482 0.203486127502 -1.055483559990
4.900183333000 0.424524050804 -0.913542700272 0.024162160368 0.009932572337 0.024909414729 0.008540793706 0.209480415969 -1.062640609391
4.901516444000 0.420748957301 -0.905507537138 0.023819623589 0.009762748116 0.024589105730 0.008460029855 0.200684932989 -1.040130386979
4.902849555000 0.420089995668 -0.924760658453 0.025427903387 0.008061138493 0.025572396965 0.008223407819 0.188009729188 -1.047849147019
4.904182666000 0.408721907349 -0.930129507297 0.023403516311 0.008936724369 0.024231586202 0.006889370215 0.180391391413 -1.047445100037
4.905515777000 0.432675611457 -0.916049748550 0.022325855490 0.008255798836 0.023470769353 0.006540715241 0.184093215224 -1.039133086746
4.906848888000 0.411180986284 -0.913474882253 0.024470628849 0.007395987907 0.023948201584 0.006517088893 0.161129310860 -1.029909103883
4.908181999000 0.411146450757 -0.915519272071 0.025197437086 0.007306369068 0.024467845600 0.005975816003 0.165787930727 -1.050215942503
4.909515111000 0.425196906052 -0.905280480418 0.022788889283 0.008434444237 0.022670868599 0.006312825402 0.182811140035 -1.039391296049
4.910848222000 0.416673535419 -0.920133306539 0.023268795925 0.007244442278 0.023742094581 0.005875222606 0.186075699389 -1.055933625761
4.912181333000 0.424778731313 -0.916789822660 0.022511918629 0.007269815548 0.022867562557 0.005252003837 0.168139910040 -1.042304793994
4.913514444000 0.403155665394 -0.916728871329 0.023962151445 0.007915785847 0.022593205425 0.005691493382 0.147575305308 -1.058188191215
4.914847555000 0.410775030232 -0.914033459240 0.024010678299 0.006778161884 0.023073684659 0.006118800835 0.178557399356 -1.044431752417
4.916180666000 0.401113116101 -0.917053162558 0.024673978507 0.005906216958 0.022411436408 0.004855570231 0.168995933177 -1.041758195078
4.917513777000 0.402679458084 -0.922467672801 0.023171729501 0.007991942340 0.022268430649 0.002951307308 0.160749268626 -1.057292332090
4.918846888000 0.404072117905 -0.900715936559 0.022887554330 0.008103392063 0.021661288941 0.003774493258 0.173386447531 -1.033706744822
4.920179999000 0.407468605146 -0.914765151446 0.022599931219 0.004606402004 0.022272441865 0.003082458210 0.157136013771 -1.030500005238
4.921513111000 0.420937036940 -0.898995168018 0.021747061697 0.006897079409 0.022556497905 0.003536363139 0.180695231096 -1.038431817202
4.922846222000 0.407929927951 -0.901923394134 0.022498502676 0.007394955927 0.022298322604 0.004361420677 0.198982158155 -1.040511437256
4.924179333000 0.390314976897 -0.910552449412 0.024388111052 0.005133152221 0.021207658649 0.002919762654 0.146131000091 -1.038538765521
4.925512444000 0.389616388721 -0.911901264383 0.023272175160 0.005597359899 0.022513648329 0.002735040360 0.159289792662 -1.052521438489
4.926845555000 0.413535217633 -0.916601339744 0.024007452074 0.006226442142 0.023096703153 0.002480897139 0.172085268789 -1.054009773493
4.928178666000 0.413541692494 -0.907389761468 0.020994426761 0.005166375172 0.022265520556 0.002775364531 0.187475197596 -1.050489772871
4.929511777000 0.419965060746 -0.904287344947 0.021603677806 0.006161280694 0.022602796817 0.003523125134 0.178614226177 -1.056586876036
4.930844888000 0.409015376010 -0.898427119509 0.021858484634 0.005760563102 0.022243846135 0.002639295372 0.163272273534 -1.044583853337
4.932177999000 0.404954947556 -0.905751782793 0.022326958223 0.004046532262 0.022603706772 0.001807208265 0.172363516974 -1.041797562048
4.933511111000 0.426841011433 -0.916363049658 0.021117750756 0.004406844822 0.023462137651 0.001584980842 0.171059538411 -1.049281462098
4.934844222000 0.415555084136 -0.909081969241 0.021900031470 0.004140210159 0.022300547170 0.001123155044 0.140045336036 -1.036595003858
4.936177333000 0.418192372703 -0.904207167269 0.024526021288 0.006091939633 0.022533231908 0.001602714271 0.151871851664 -1.026701993135
4.937510444000 0.403244081503 -0.900093750532 0.021980588059 0.003794236764 0.016340298721 0.000213050812 0.153388923579 -1.030083023145
4.938843555000 0.413857443880 -0.896329705078 0.024054010792 0.003688176562 0.023882728197 0.000930183515 0.151409040441 -1.047459008919
4.940176666000 0.403263456919 -0.913186490909 0.020766998234 0.004682494472 0.022812146569 0.001056632703 0.140873311857 -1.049581491301
4.941509777000 0.396267346581 -0.923735449328 0.022245484527 0.002273918953 0.023546492124 -0.000424077392 0.145391734600 -1.051321483619
4.942842888000 0.395885252495 -0.883526380538 0.023788704721 0.004231785496 0.023412660228 0.001581754701 0.125350148766 -1.031859475874
4.944175999000 0.415508758579 -0.899275341651 0.020725161257 0.004023489244 0.023951824697 0.002547416798 0.151439771728 -1.044104149592
4.945509111000 0.413246425080 -0.905261003237 0.023369019680 0.002897286001 0.024073395569 0.001712899360 0.147621264113 -1.026978114653
4.946842222000 0.403758899440 -0.899725387284 0.021762142752 0.003580835581 0.024145346058 0.000864981553 0.139274249569 -1.047631418963
4.948175333000 0.377428621958 -0.896102406371 0.023490395916 0.001667301667 0.023861678438 0.000578741621 0.171695183406 -1.053821685434
4.949508444000 0.401926124048 -0.916463369228 0.021143888942 0.002239335885 0.025634563327 0.000438111227 0.154507243704 -1.033488852694
4.950841555000 0.386559739947 -0.896201868269 0.022926907371 0.001875958045 0.026366942564 0.000685781363 0.154612212792 -1.042473713988
4.952174666000 0.406271923899 -0.887181292975 0.024111882457 0.002957563335 0.025455898437 0.000977565305 0.158384774526 -1.046723834427
4.953507777000 0.377764446458 -0.896516619314 0.023661465409 0.001092844304 0.025980982436 0.000470415748 0.151512157548 -1.053534608655
4.954840888000 0.397202292959 -0.904130179360 0.021453912125 0.001160213187 0.026189249312 -0.000985554871 0.153955074531 -1.041861581499
4.956173999000 0.397241274585 -0.897491468828 0.023894844718 0.001289373269 0.025345123169 -0.000175095711 0.146191359072 -1.032647787667
4.957507111000 0.401701972912 -0.902095082944 0.021702573169 0.001419638459 0.027013124622 -0.000130871235 0.155298053191 -1.031702608394
4.958840222000 0.394754363964 -0.893731032538 0.023459433015 0.002570158087 0.026472886413 -0.000199307082 0.161017936359 -1.036387516858
4.960173333000 0.401552668608 -0.903530163827 0.022659199045 0.003762478838 0.026682720095 0.000380055594 0.135770282073 -1.024432528109
4.961506444000 0.397133683771 -0.914983427861 0.021444033460 0.000310993968 0.026421119382 0.000795340754 0.130965959790 -1.024643871303
4.962839555000 0.401491409317 -0.882503370290 0.022673837741 0.002216720507 0.026254050939 0.000104254523 0.134391773133 -1.024916302235
4.964172666000 0.387077074535 -0.891054888314 0.022072186622 -0.001905386279 0.026878311829 -0.000637759953 0.128669165723 -1.040344713493
4.965505777000 0.376890218807 -0.914912489539 0.024497320640 -0.000134716029 0.027280361867 -0.001238568700 0.123574138109 -1.033701719545
4.966838888000 0.389036045545 -0.891864204156 0.023321430921 0.000128053783 0.026575384802 -0.000165324610 0.132487662721 -1.034190074958
4.968171999000 0.381801859766 -0.906039904118 0.021741830888 0.000296874971 0.026239508900 -0.000125935571 0.143296764650 -1.047495114333
4.969505111000 0.385020591761 -0.902635662978 0.021275719166 0.000833304057 0.027606591848 -0.000953022702 0.133028909181 -1.033287104862
4.970838222000 0.394699156322 -0.891497764473 0.022986740783 0.002609212159 0.026126284182 -0.000913575910 0.122807671441 -1.032354646077
4.972171333000 0.394889183775 -0.905123138073 0.021972530214 0.001103311349 0.025950293325 -0.000602407538 0.127687790108 -1.033119484325
4.973504444000 0.392048868804 -0.896400203894 0.024152855418 -0.000415231058 0.027690947685 -0.000174663086 0.133218078924 -1.033260091998
4.974837555000 0.391801674074 -0.886919383467 0.022673358100 -0.001791301044 0.027633084784 -0.000656463291 0.123704039336 -1.038098943681
4.976170666000 0.387001618339 -0.901514575049 0.024381537536 0.000468730386 0.028266859312 -0.001145037866 0.128628858229 -1.032845485627
4.977503777000 0.395957263272 -0.903659526226 0.023523258155 -0.001935783023 0.028893093955 -0.002471375362 0.122932796011 -1.035519959681
4.978836888000 0.371989373588 -0.897606484220 0.022961354399 -0.001273481600 0.027850117501 -0.002634045587 0.119260180660 -1.031482143061
4.980169999000 0.401154529962 -0.898227788659 0.023632200135 -0.002376108695 0.028523997937 -0.000763020454 0.123403959814 -1.029282572814
4.981503111000 0.402064481010 -0.888001049265 0.025167424899 0.000711119846 0.028511001180 -0.001138484886 0.126609931316 -1.026536030612
4.982836222000 0.406361999247 -0.899222292525 0.026518379833 0.000419228399 0.028829600784 -0.001313461623 0.122013279892 -1.029433362060
4.984169333000 0.391373439685 -0.890511244368 0.024759661013 -0.003768174193 0.027889697393 -0.002424247584 0.117443076848 -1.035038129058
4.985502444000 0.398088170184 -0.901384199927 0.026291125042 -0.002249052929 0.029071867044 -0.001025598218 0.123744864218 -1.036633030128
4.986835555000 0.385024863749 -0.882377687173 0.024892310060 -0.003095953673 0.028219343660 -0.000317022009 0.119419930622 -1.032242168445
4.988168666000 0.395537531135 -0.888959580115 0.025841591009 -0.001712519246 0.029227679922 -0.000270751151 0.121095396728 -1.028971484823
4.989501777000 0.392411592479 -0.899072363454 0.024781033146 -0.002719201438 0.029274026106 -0.001075557118 0.121879690660 -1.030100153530
4.990834888000 0.391078358752 -0.909443689477 0.026325313131 -0.004083645445 0.028891980837 -0.000683348145 0.124101944218 -1.027897983735
4.992167999000 0.390297705578 -0.889785094655 0.023542792087 -0.002010445927 0.029066922042 -0.000449967882 0.116199129196 -1.028860468823
4.993501111000 0.397225341203 -0.898731591288 0.025251310867 -0.003133515647 0.029016352688 -0.001876488564 0.123185061727 -1.028236117311
4.994834222000 0.399236778678 -0.899219073807 0.027051436891 -0.001293329083 0.029517572316 0.000762590738 0.126386502733 -1.028025928352
4.996167333000 0.392813065738 -0.893252070838 0.023701492637 -0.002782994480 0.028932764151 -0.000463950509 0.126279708297 -1.025160749403
4.997500444000 0.395495164858 -0.895504636954 0.027189907621 -0.001010813124 0.030461867897 0.000043046359 0.117496766282 -1.025419445598
4.998833555000 0.389724559270 -0.897367449686 0.026844244996 -0.001434292261 0.030026407723 -0.000271581060 0.118191297184 -1.031361914347
5.000166666000 0.391549349053 -0.909416985560 0.024519712783 -0.002013981690 0.028009758288 0.000418386997 0.114425082366 -1.025572365997
5.001499777000 0.385395783576 -0.905517950154 0.025430782408 -0.004491867333 0.027402051765 0.000765916863 0.111738948864 -1.028714405467
5.002832888000 0.391009278769 -0.891876709782 0.025164259023 -0.002474847321 0.027837238507 0.000127872357 0.109646116965 -1.023106864512
5.004165999000 0.390841454232 -0.893272990525 0.028297589805 -0.003368773936 0.028565042861 0.000417919381 0.125787173557 -1.018927244023
5.005499111000 0.391767404255 -0.903880848888 0.027144140065 -0.003856838503 0.027200152740 -0.000679814860 0.115177798407 -1.027151138834
5.006832222000 0.402759145840 -0.896076656718 0.027281303121 -0.003619256395 0.028490860359 0.000352301488 0.115734223199 -1.028904589476
5.008165333000 0.400412921865 -0.889432442867 0.026012851934 -0.003168197084 0.028994767427 -0.000358616356 0.122541247197 -1.016130536098
5.009498444000 0.392336623977 -0.901987021348 0.026400358340 -0.004911682591 0.029357303360 -0.000892035242 0.108050721867 -1.023576111024
5.010831555000 0.392331482420 -0.888345671727 0.029067730934 -0.003805070010 0.028370085889 -0.000469386739 0.129356707613 -1.021140950861
5.012164666000 0.390896150117 -0.893046599592 0.027854438360 -0.001876495583 0.027919653362 -0.000176303502 0.123707107603 -1.018227701017
5.013497777000 0.391039301001 -0.905704800334 0.029536769469 -0.003073165642 0.028507644218 0.000401252355 0.126888259165 -1.026945421237
5.014830888000 0.392952755594 -0.895608049541 0.026082352034 -0.003983060563 0.028267689414 0.001169930774 0.111215378341 -1.017070945888
5.016163999000 0.394277236774 -0.903483091667 0.026294881257 -0.003610561210 0.028775053456 0.000589065482 0.103248082327 -1.018277051285
5.017497111000 0.385035853269 -0.903283244069 0.026955869593 -0.001886185985 0.028107095592 0.000866452281 0.120474687167 -1.020068705075
5.018830222000 0.393985098379 -0.904518916542 0.029414284425 -0.004080893772 0.028363810293 -0.000479533336 0.122160429737 -1.002974172462
5.020163333000 0.391023960557 -0.900804465277 0.028499914077 -0.000742991948 0.028659442586 0.001104260277 0.125720751536 -1.013971254065
5.021496444000 0.393786286786 -0.901846481667 0.029846052783 -0.001004058762 0.029306725848 0.001244100629 0.119440752536 -1.006599882662
5.022829555000 0.393532700635 -0.900209623668 0.029095518249 -0.003760815606 0.029793587107 0.001617061101 0.114607792544 -1.026816480208
5.024162666000 0.394618611499 -0.901811040086 0.028881380758 -0.001517572297 0.029765011175 0.001625525792 0.130288601803 -1.042897791017
5.025495777000 0.399238672624 -0.899177316710 0.029315417464 -0.002345547488 0.028533659518 0.001831679572 0.110960769723 -1.018021154184
5.026828888000 0.397311389830 -0.898874864180 0.027124686920 -0.001680155441 0.029288405948 0.001563779198 0.101625387166 -1.018351431886
5.028161999000 0.392104299770 -0.900877374641 0.028966074330 -0.002230826146 0.028802051763 0.000474974307 0.120674455689 -1.021557230903
5.029495111000 0.394941268782 -0.904141139174 0.029479485377 -0.001566254901 0.027777175755 0.000750914298 0.127293506089 -1.007852469115
5.030828222000 0.386355585695 -0.903193363150 0.028278307291 -0.002018150956 0.028204013275 0.000209483071 0.105001985004 -1.013684504135
5.032161333000 0.392183705023 -0.906350518901 0.028587846906 -0.000255732898 0.028578258966 0.001092852753 0.141718884299 -1.024332341616
5.033494444000 0.394770475178 -0.902599131744 0.028227591281 -0.001013024470 0.029010575191 0.001885073047 0.131752719698 -1.008252571941
5.034827555000 0.391437644222 -0.908477164160 0.028764783117 -0.000696100564 0.029544240805 0.001447756427 0.121486521602 -1.018873328492
5.036160666000 0.395531746827 -0.896712776551 0.030057554762 -0.001858036083 0.029670508530 0.001552722997 0.107722772780 -1.013584839382
5.037493777000 0.392123578633 -0.898587366387 0.027982990252 -0.000919959884 0.029519862539 0.000574354177 0.110726374995 -1.021827310616
5.038826888000 0.397212996088 -0.910860545853 0.030666872004 0.000622311774 0.029964362727 0.002082073193 0.120997966202 -1.017538406582
5.040159999000 0.399325600192 -0.898860787993 0.029403771801 0.002033941441 0.029207041576 0.001119215933 0.129868964568 -1.015197750654
5.041493111000 0.410170709550 -0.900542815774 0.030452941208 0.001905607587 0.028548618284 0.001201882621 0.100204049417 -0.996539390432
5.042826222000 0.384122761744 -0.907934717017 0.029852270314 -0.001443357369 0.029089019184 -0.000342270780 0.113947076970 -1.011903961858
5.044159333000 0.398359883765 -0.904831735741 0.030325597588 0.001248672771 0.030103530900 0.001016034927 0.109703118888 -1.004302333887
5.045492444000 0.394282483749 -0.902858826540 0.028959004447 0.001687450965 0.030132916653 0.001639931610 0.126225053433 -0.996677894895
5.046825555000 0.389542827184 -0.900834378471 0.031588676231 0.000544862076 0.029792230368 0.001459866168 0.133458121054 -1.033501780274
5.048158666000 0.407268914588 -0.905330241047 0.031291264523 0.002820292666 0.030303307587 0.001342125132 0.130127457648 -1.009957831096
5.049491777000 0.404835125282 -0.910022234054 0.030221221710 0.000994896961 0.029719620959 0.000799998290 0.123319084588 -1.001790698289
5.050824888000 0.403542385932 -0.900608623901 0.030344875222 0.000749080752 0.029935703008 -0.000058334902 0.100665381734 -1.004652721289
5.052157999000 0.398479435032 -0.898939973373 0.029366389492 0.002562454259 0.029594976485 0.001173938419 0.138157977744 -1.022843241161
5.053491111000 0.404833104587 -0.916182864766 0.030038945796 0.001977302198 0.030750545968 0.000211634897 0.111986632734 -1.021165768203
5.054824222000 0.398508078357 -0.911523904756 0.030262626085 0.000832145694 0.031165721526 0.000852342434 0.124895126859 -1.020866625104
5.056157333000 0.392238839442 -0.904595200581 0.029560223793 0.001999582974 0.029434646731 0.000589639098 0.112644600336 -1.008580615331
5.057490444000 0.399272966352 -0.906396907910 0.030093675901 0.003834115257 0.029798601932 0.001217074619 0.129517487178 -0.987257207778
5.058823555000 0.401349344365 -0.899456546445 0.030107633857 0.002160500113 0.030574753776 0.001470423179 0.130029719416 -1.004457155471
5.060156666000 0.395455550685 -0.900325515828 0.029000713519 0.003867214780 0.030353561990 0.001356380597 0.127636010387 -0.999781506248
5.061489777000 0.399392988046 -0.901674679589 0.031264464515 0.002575801554 0.031528985317 0.001458067404 0.123043477958 -1.022442692594
5.062822888000 0.411378393768 -0.908625613077 0.029205280453 0.003316184566 0.030541090226 0.002237670420 0.124443146271 -1.011152469737
5.064155999000 0.396294997969 -0.904606064043 0.030622063936 0.002303399028 0.031220385417 0.001068190775 0.121984751877 -1.028258891307
5.065489111000 0.401086019748 -0.925478199934 0.031824184249 0.002759873272 0.031398698197 0.002051812481 0.112580687937 -1.019634138463
5.066822222000 0.406540475378 -0.901862332113 0.030572870233 0.004244840365 0.031361969281 0.002101484612 0.139907757953 -0.999474742981
5.068155333000 0.410240644891 -0.913208828302 0.031015690772 0.004068112693 0.031027339932 0.002768394496 0.115682595442 -1.025698326635
5.069488444000 0.400328587162 -0.914632322019 0.029794047305 0.003302798153 0.030571689598 0.002282867009 0.122519572580 -0.996171854586
5.070821555000 0.418587217135 -0.913269377235 0.030379005043 0.005634503385 0.030020428903 0.003653494673 0.129391195211 -1.008515110689
5.072154666000 0.407502539744 -0.901629910187 0.029853003935 0.003754975855 0.031374465178 0.003907951196 0.138224178886 -1.018705533454
5.073487777000 0.408455024190 -0.930550381495 0.029947347507 0.004932476235 0.031352608285 0.003961434454 0.124388233041 -1.013190176924
5.074820888000 0.402546143716 -0.911540815669 0.030575358975 0.004991363636 0.031031680397 0.004433626111 0.140959252150 -1.012395140980
5.076153999000 0.415715405395 -0.905202378077 0.029223804937 0.005101858279 0.030664332625 0.004880559134 0.128657232640 -1.001544401375
5.077487111000 0.389504785692 -0.917079987534 0.029394001940 0.005039012371 0.030602811895 0.004761721524 0.130393329657 -1.012495807277
5.078820222000 0.415110700607 -0.927449777596 0.031146120214 0.005447621871 0.031301180849 0.005068388464 0.135323886879 -1.011234032604
5.080153333000 0.405667592062 -0.921270440873 0.031133897722 0.004922233305 0.030947307956 0.004995260993 0.128587003686 -1.001413177661
5.081486444000 0.412850403864 -0.912269580813 0.030030139436 0.005276908994 0.030732014232 0.005621146157 0.122810022487 -1.014285742596
5.082819555000 0.401223246888 -0.919077184862 0.030401513013 0.005270941536 0.030608475619 0.005830276618 0.136489599665 -1.008749758808
5.084152666000 0.433127500231 -0.911254865777 0.031070659128 0.005924230398 0.030769990385 0.005483631806 0.140997163984 -1.018748717985
5.085485777000 0.403956073245 -0.934404579792 0.029602770457 0.006404791197 0.030755769224 0.005884016330 0.131084139007 -1.007236136086
5.086818888000 0.402359434645 -0.923756191201 0.030469144785 0.006702784943 0.030666013970 0.006115215106 0.136274043494 -1.017499477221
5.088151999000 0.415118526324 -0.927857191905 0.030742693205 0.006665301290 0.030776191971 0.005415142460 0.127850546360 -1.009378225818
5.089485111000 0.406509616264 -0.898119109255 0.029829663996 0.007450690632 0.030178664656 0.006360709363 0.130829219584 -1.011483145216
5.090818222000 0.420427676001 -0.923839266583 0.029584401827 0.007896496505 0.031332438243 0.006399041859 0.134844193464 -1.009741617323
5.092151333000 0.395405128654 -0.928219376643 0.029390648369 0.005730541418 0.030215880156 0.007071947285 0.126847983719 -1.012766891364
5.093484444000 0.415524478588 -0.910365830086 0.029184439757 0.007306578019 0.030612465160 0.006933505415 0.135136258539 -1.014131106392
5.094817555000 0.412769144247 -0.915775970634 0.030852739895 0.007192028277 0.031424384655 0.006931406731 0.134408769912 -1.014182740925
5.096150666000 0.405912374909 -0.918202761922 0.030386692383 0.007995541751 0.031176118525 0.006120398968 0.137800370559 -1.015693213437
5.097483777000 0.403754973108 -0.919715281228 0.030396707876 0.008084968631 0.030618674509 0.006876268399 0.135300229980 -1.017896534998
5.098816888000 0.397560054220 -0.916411253280 0.029328296534 0.008179219001 0.030324369056 0.007183415431 0.133852253505 -1.017790761567
5.100149999000 0.407556004277 -0.923208102245 0.030636227994 0.008861746666 0.030420313233 0.007072059874 0.134125164250 -1.011107379121
5.101483111000 0.404236382732 -0.920441189524 0.029105161944 0.008550971872 0.030009064060 0.007727921695 0.133752454596 -1.019147400569
5.102816222000 0.400992871348 -0.909379902213 0.029602414697 0.009709505882 0.030280439494 0.008350375627 0.135859244045 -1.015253848408
5.104149333000 0.402283103156 -0.915668442605 0.028895232283 0.008857938901 0.030668921960 0.007700331683 0.136331111947 -1.017196539012
5.105482444000 0.400929758601 -0.925350246690 0.029729073760 0.009383536283 0.030617801855 0.007638887395 0.138397775501 -1.019559559220
5.106815555000 0.400185183810 -0.927693949371 0.030400086312 0.008955603256 0.030890547461 0.007860845119 0.135122333233 -1.018618634447
5.108148666000 0.407996027706 -0.915996641034 0.029260240109 0.009498574439 0.030244501758 0.007754748153 0.135064016746 -1.018257329462
5.109481777000 0.405447878353 -0.913893110099 0.029813231113 0.009040008233 0.030813927813 0.008394927577 0.138284326431 -1.018214752697
5.110814888000 0.385131188598 -0.921366390806 0.029514425275 0.010293596104 0.030285798413 0.008170391287 0.133491744795 -1.022725826440
5.112147999000 0.391990845589 -0.927702504892 0.029221645279 0.009826063814 0.031325104681 0.007822902857 0.134696385374 -1.022308370024
5.113481111000 0.400964281717 -0.934910676968 0.028940608728 0.009704266809 0.030912538176 0.008137270303 0.125884179683 -1.016889959325
5.114814222000 0.391682638791 -0.906537899539 0.029149538808 0.010790396859 0.030532208179 0.008953217922 0.135373683577 -1.017703903164
5.116147333000 0.404931033108 -0.915038932045 0.028988712576 0.010563560739 0.030547440510 0.009409150424 0.139050526221 -1.015775084961
5.117480444000 0.381438297897 -0.915731813963 0.029869040756 0.009695817762 0.030961861441 0.008888169987 0.135999924946 -1.015463092847
5.118813555000 0.401147971347 -0.939793131967 0.029937044186 0.010370414148 0.031580147449 0.008900419304 0.133429935376 -1.024757535271
5.120146666000 0.406703567166 -0.920791301196 0.028891614404 0.011016159017 0.031024556734 0.009617505126 0.131225010842 -1.021591618360
5.121479777000 0.393069991144 -0.926363963358 0.029042756013 0.010443909768 0.031083826761 0.008641480408 0.137447440771 -1.022499524772
5.122812888000 0.387781508115 -0.930618848394 0.029670171000 0.010417319853 0.031231232097 0.009530200333 0.131016869474 -1.028821398314
5.124145999000 0.388008881337 -0.920204266263 0.028780115917 0.010755989672 0.031387413439 0.009421682486 0.125275901823 -1.022795181132
5.125479111000 0.403048483482 -0.918468249131 0.028740137890 0.012125170673 0.031101797267 0.010109087585 0.143570163892 -1.028436731312
5.126812222000 0.411192193517 -0.916328536777 0.028162360203 0.011937671969 0.031042320174 0.010082268284 0.142792943002 -1.031139354615
5.128145333000 0.393680651533 -0.926603304207 0.028790023033 0.010841667707 0.031401119504 0.009404560838 0.128044445229 -1.032403933758
5.129478444000 0.393372584325 -0.929529413766 0.028858956982 0.011658193703 0.031225268611 0.009498957691 0.126975068692 -1.027000665274
5.130811555000 0.390418935404 -0.930837312060 0.028476568869 0.010439629475 0.031528753924 0.009539514347 0.134034780245 -1.028099068225
5.132144666000 0.396998599391 -0.927498490672 0.029385168027 0.011529770347 0.031534249196 0.010050128650 0.125904636693 -1.028300791919
5.133477777000 0.386640410222 -0.926037696061 0.028636908186 0.012071110689 0.031572529547 0.010164111070 0.131996407656 -1.024717587974
5.134810888000 0.401904297557 -0.927185346213 0.028681633573 0.010997504131 0.031466568525 0.009925979579 0.122774016009 -1.037981661202
5.136143999000 0.398757751601 -0.924228481103 0.028044828034 0.012405277999 0.031209361854 0.010385417938 0.134787714024 -1.030484817659
5.137477111000 0.395346244047 -0.931194554059 0.027774908423 0.012305613759 0.031506771804 0.010256395863 0.136076700263 -1.022192186518
5.138810222000 0.395073788504 -0.924996570983 0.027746139204 0.011999263774 0.031866035068 0.010910750482 0.129850572032 -1.026885089298
5.140143333000 0.388352403561 -0.928910012516 0.028047986050 0.012378768814 0.031780212362 0.010922429414 0.136466353996 -1.026026905091
5.141476444000 0.390308122435 -0.928201702893 0.028383211023 0.011475431073 0.032035934541 0.010860519071 0.135317359299 -1.036203233771
5.142809555000 0.391426090969 -0.929631262293 0.027582377933 0.011897868174 0.031930518784 0.011052951419 0.118385625029 -1.039760502121
5.144142666000 0.389051125870 -0.926451945349 0.028289008041 0.011693172966 0.031317512709 0.011104176977 0.142489662979 -1.019575923519
5.145475777000 0.386245285198 -0.927502661514 0.027632273513 0.011996014673 0.031916466151 0.011037146758 0.123775830403 -1.048413738852
5.146808888000 0.383865308053 -0.930752421980 0.027404663882 0.012129085464 0.032004056360 0.011005246432 0.126071006463 -1.031550724228
5.148141999000 0.385759989817 -0.927543672839 0.028311533159 0.011490030127 0.031793611702 0.010852771809 0.117393746628 -1.038078094245
5.149475111000 0.383568536685 -0.932907109201 0.027153764137 0.010794548476 0.032023583251 0.011576341219 0.120795573392 -1.040515326978
5.150808222000 0.383754159605 -0.932296018187 0.027119243158 0.011799390735 0.032108597788 0.012024624106 0.127215870560 -1.052062217357
5.152141333000 0.382722110345 -0.932084420077 0.028131153094 0.011236657015 0.032479411846 0.011202560222 0.111681621933 -1.054668327936
5.153474444000 0.381675758732 -0.930286125860 0.027436338967 0.011329455246 0.031693448861 0.011699040442 0.120717801850 -1.052054155001
5.154807555000 0.380907617129 -0.931664291035 0.027175034854 0.010728042522 0.031845879385 0.011493868850 0.114032683993 -1.045545724203
5.156140666000 0.383235174971 -0.930584561291 0.027336939799 0.010401289159 0.031944198930 0.011141501854 0.113681928003 -1.040077263929
5.157473777000 0.382605232129 -0.928426999563 0.026909832264 0.011285717176 0.031499091119 0.012566937680 0.121116007050 -1.050141898099
5.158806888000 0.379562578321 -0.926977939687 0.026997838013 0.011023289741 0.032088967529 0.012168108823 0.137038263608 -1.047016098634
5.160139999000 0.378154792406 -0.931939062520 0.026496179562 0.011199646218 0.031583528421 0.012265156726 0.113929192990 -1.051528850880
5.161473111000 0.378366832690 -0.931962832179 0.027428192459 0.010170226885 0.031836984047 0.012369278960 0.117273635228 -1.052480107120
5.162806222000 0.376375314034 -0.928485926124 0.026676532538 0.009897974699 0.031766042847 0.011936966919 0.116520190573 -1.045754122314
5.164139333000 0.382129400159 -0.930869835221 0.027268836547 0.010272296949 0.032273218923 0.012359243903 0.111618717225 -1.045617994891
5.165472444000 0.372650791347 -0.935840211147 0.026012410871 0.010995340742 0.031522269212 0.012625952309 0.119323427351 -1.037995331937
5.166805555000 0.373277278821 -0.935137944489 0.026708231209 0.011035168246 0.031642534173 0.011853478009 0.123163739838 -1.046962946268
5.168138666000 0.371028595431 -0.926909105801 0.027087928857 0.010590391471 0.032084560946 0.012084901375 0.110943652804 -1.056157370251
5.169471777000 0.370867981459 -0.934001866041 0.027486361478 0.009144234785 0.032051742250 0.012240537711 0.108505769545 -1.057193001969
5.170804888000 0.373011369755 -0.935851493353 0.025973130974 0.009010594824 0.031909790021 0.011753855820 0.114896220518 -1.063812275328
5.172137999000 0.364278554996 -0.929919037709 0.026984521763 0.009565984215 0.031800266210 0.012282674333 0.119157458137 -1.058577941692
5.173471111000 0.368406513549 -0.935069605219 0.027061253464 0.009887137769 0.031624592119 0.012389384211 0.119344327317 -1.049091711028
5.174804222000 0.367237199026 -0.927066716714 0.027052681953 0.009731348996 0.031782138765 0.012890906199 0.114367163733 -1.051865102091
5.176137333000 0.359628560177 -0.931576574070 0.027058816018 0.009905975489 0.031395901193 0.011937443757 0.115045874315 -1.056717761505
5.177470444000 0.365668241780 -0.933472147458 0.025702433293 0.009230546260 0.032138334622 0.013358595135 0.116835424120 -1.058798321284
5.178803555000 0.362460298648 -0.932132512076 0.026939202374 0.008861332004 0.032237189755 0.012159239130 0.115239663985 -1.055523406777
5.180136666000 0.360109329885 -0.938944245878 0.027201176317 0.007880787162 0.031304496846 0.011887037892 0.113209041307 -1.054722112050
5.181469777000 0.356575563818 -0.938783431394 0.025773075700 0.008041992171 0.030986602991 0.012924897544 0.110762206767 -1.052666973285
5.182802888000 0.363952180978 -0.932287186094 0.026857304717 0.008123102645 0.031885253340 0.011877763045 0.109686412780 -1.053350753521
5.184135999000 0.361329565604 -0.938728695009 0.025518466484 0.009126078360 0.031653332114 0.012653744535 0.108279839832 -1.049779518211
5.185469111000 0.356220354672 -0.940229691679 0.027222341121 0.008190944473 0.031638402406 0.012217383714 0.111805738146 -1.055387977164
5.186802222000 0.359509868008 -0.932301570097 0.025774982969 0.007819266583 0.031072587592 0.011991798315 0.105207263968 -1.055306023106
5.188135333000 0.348398037950 -0.932196854011 0.025706483075 0.007805091096 0.031123570170 0.012298573543 0.112444688877 -1.054051754834
5.189468444000 0.340864731709 -0.928878296201 0.026118860012 0.006979859737 0.031108302362 0.012622669102 0.111000947431 -1.060157758993
5.190801555000 0.347077734835 -0.937951313388 0.025252434670 0.007366138367 0.031033055486 0.012346405407 0.107529140583 -1.057164977013
5.192134666000 0.347887159296 -0.924373705426 0.025593037520 0.005875191488 0.030881393560 0.011709841204 0.104004877909 -1.058746923718
5.193467777000 0.340241242092 -0.938526414380 0.025913791249 0.005626184778 0.030950540184 0.011921500421 0.105206584438 -1.055962944120
5.194800888000 0.335368868978 -0.935227923137 0.025864818788 0.006701870654 0.030145750820 0.012064330574 0.107079244376 -1.056713619828
5.196133999000 0.348890464200 -0.943597835306 0.025573704321 0.007897835913 0.031695132327 0.012507150540 0.102606148662 -1.056112507178
5.197467111000 0.347212116820 -0.933404306912 0.026226015727 0.006030210469 0.031565537842 0.011708391175 0.103261042941 -1.059380751062
5.198800222000 0.344416010827 -0.937208544970 0.025504752237 0.005292163044 0.031034714562 0.011674105900 0.101111871454 -1.056850039998
5.200133333000 0.334460088788 -0.934231089478 0.025243023661 0.005889030421 0.029767585865 0.010634890291 0.097422072934 -1.059170050320
5.201466444000 0.329646394441 -0.917029755941 0.025055217390 0.006213828217 0.030155406529 0.011942562508 0.096920758528 -1.058219845275
5.202799555000 0.333332474017 -0.952193210974 0.025410214746 0.005212843912 0.030712416987 0.011093097835 0.098375563048 -1.060597573009
5.204132666000 0.325630517948 -0.940281918840 0.027424069837 0.005570291133 0.031167867030 0.010714740516 0.100781527620 -1.058775272845
5.205465777000 0.334971901520 -0.927414042789 0.027916523829 0.005140879377 0.030617662946 0.011456797717 0.095798850404 -1.053205499587
5.206798888000 0.349495944398 -0.941894795918 0.027694110369 0.005348803944 0.030545425328 0.011558203600 0.099557419448 -1.060865012706
5.208131999000 0.323987097080 -0.945656972759 0.026724671622 0.003913519458 0.030796979666 0.010660660583 0.097672183925 -1.062897477939
5.209465111000 0.313315035347 -0.942609664090 0.025802727088 0.004959831072 0.030745351163 0.010994758982 0.097964407686 -1.061024394903
5.210798222000 0.323038595060 -0.933300567776 0.026833018759 0.002885204049 0.030154887056 0.010635830949 0.096287971340 -1.061621540440
5.212131333000 0.325646507640 -0.925135149744 0.025632710819 0.005996678533 0.030536681689 0.012111018208 0.102247608949 -1.058608285010
5.213464444000 0.315068133837 -0.929464458486 0.027514498601 0.003679563541 0.031072852749 0.009552913353 0.089929947028 -1.058861890207
5.214797555000 0.297838946847 -0.927473027560 0.025988999431 0.002431471142 0.030131530907 0.009315214009 0.093949085887 -1.053655148062
5.216130666000 0.315647280457 -0.926299421776 0.027698074525 0.005379404957 0.029782947885 0.009358740179 0.089373038565 -1.062502698858
5.217463777000 0.326389813049 -0.939622017433 0.025659888232 0.004127921271 0.030677525153 0.010393344932 0.091823518776 -1.062458179531
5.218796888000 0.308828977767 -0.965442206911 0.027400110113 0.005486633929 0.031153512175 0.010828445905 0.096573290420 -1.052853344688
5.220129999000 0.323907007947 -0.946037536980 0.026437667465 0.004923132124 0.031195564940 0.010554163285 0.107500756768 -1.045165487038
5.221463111000 0.327046914771 -0.945624489226 0.026658313349 0.005096854846 0.030940389251 0.010487645138 0.086628899441 -1.053616697789
5.222796222000 0.303630483871 -0.928710753090 0.027992251302 0.004611015489 0.031198709004 0.009687672295 0.084516262351 -1.062158125200
5.224129333000 0.305457008158 -0.925924402840 0.027108497123 0.001678252972 0.030357836006 0.008229509997 0.104169199333 -1.058732582984
5.225462444000 0.292096829801 -0.948625951707 0.027717090761 0.000916429927 0.031976365014 0.008936690503 0.094011870826 -1.053171609447
5.226795555000 0.306510261320 -0.938523717019 0.027801352576 0.003610704454 0.030344789165 0.008861645952 0.113964759879 -1.050409276316
5.228128666000 0.320420678874 -0.926250469804 0.025946164467 0.004108198672 0.031289510774 0.008000781296 0.084968402705 -1.047845117170
5.229461777000 0.331178078443 -0.937486761128 0.026779829426 0.003276783019 0.030769934035 0.011652677942 0.117189164859 -1.047778164645
5.230794888000 0.299994067557 -0.940856954444 0.027006722876 0.002519946425 0.031476916799 0.007755727415 0.077268849592 -1.070670424636
5.232127999000 0.307433745519 -0.936668755004 0.028725541543 0.003311048657 0.032474335769 0.008195673353 0.086179873778 -1.065546238733
5.233461111000 0.305597769355 -0.912458866825 0.028827291640 0.002813802521 0.030409732942 0.008258812492 0.095103665936 -1.040781272124
5.234794222000 0.332374972506 -0.912405200694 0.028320445007 0.003094543007 0.032374836797 0.009427626437 0.098534933097 -1.057654620339
5.236127333000 0.321812143315 -0.945737114250 0.027103324756 0.003527459846 0.031167734105 0.008792102897 0.090045925896 -1.050244474284
5.237460444000 0.297862369394 -0.914576413120 0.027880826634 0.001777416478 0.030745588344 0.008796664309 0.104094048211 -1.030725008164
5.238793555000 0.305291574788 -0.927615233188 0.027469437993 0.001273000225 0.031911436183 0.006834561039 0.088941444934 -1.058588078944
5.240126666000 0.300814341199 -0.937243750846 0.028856289206 0.002474563144 0.031086499893 0.006858278899 0.095763518597 -1.035674507724
5.241459777000 0.329111822508 -0.940600179929 0.027400984221 0.003892707317 0.032082583798 0.008422110364 0.080986239044 -1.056079921526
5.242792888000 0.308188176132 -0.925408049999 0.028892353981 0.003866888385 0.031642276205 0.008803954674 0.074875685158 -1.048107342921
5.244125999000 0.311140459937 -0.917923230782 0.029562982678 0.002843738353 0.032734939965 0.008577576570 0.087085945869 -1.043049284244
5.245459111000 0.310465741137 -0.932762588150 0.027077569696 0.001999836753 0.029863111126 0.007130257395 0.082262023009 -1.044456802627
5.246792222000 0.299338711998 -0.919272994099 0.027794690126 0.000623425058 0.032712237225 0.008260264050 0.098437782345 -1.063384544582
5.248125333000 0.314651174263 -0.930875040803 0.028491609120 0.003033406241 0.033112921078 0.007257054986 0.089914700819 -1.035654569320
5.249458444000 0.311315458433 -0.926458505827 0.029331356772 0.002204045911 0.031656317065 0.007845827087 0.078961295382 -1.041818197718
5.250791555000 0.312973517717 -0.938107066365 0.030579428275 0.003949727584 0.033804079366 0.007190117901 0.089723616851 -1.064242881695
5.252124666000 0.328727051094 -0.939311638031 0.030472551847 0.001642703159 0.032368017568 0.007918542741 0.089843164322 -1.042431514460
5.253457777000 0.318578340832 -0.924135792730 0.030260470339 0.001622584991 0.032552683335 0.006127827408 0.097381249104 -1.063680960309
5.254790888000 0.324296418239 -0.927201665051 0.031001498343 0.000334457991 0.033184064049 0.006576741987 0.083420079238 -1.063780135495
5.256123999000 0.331333551642 -0.926607989752 0.028648914226 0.000982549001 0.032860057688 0.005723344445 0.088656092993 -1.029680798805
5.257457111000 0.332512072301 -0.918028737870 0.030721637319 0.003248739039 0.033580549961 0.007380247592 0.100656218152 -1.036899834851
5.258790222000 0.324666555778 -0.922680431411 0.029752542458 0.002255355133 0.034311305884 0.005282290370 0.105720599452 -1.023294959547
5.260123333000 0.325251423487 -0.923364840507 0.028897816860 0.001238778022 0.033249841228 0.006193200266 0.096389413267 -1.037190576893
5.261456444000 0.343835451332 -0.916235185845 0.031834398699 0.003047921966 0.034368275748 0.006820269485 0.108490450164 -1.044549593894
5.262789555000 0.341196252873 -0.924833449725 0.029340100785 0.001310686442 0.034187147903 0.006249377392 0.083795799550 -1.047915994838
5.264122666000 0.347007555840 -0.919159273992 0.028983916410 0.001079018387 0.033845200860 0.006294633987 0.103097770682 -1.033471588811
5.265455777000 0.344430972508 -0.918000512569 0.031493687649 0.002662000867 0.033662894353 0.005521974156 0.095473787990 -1.037901486889
5.266788888000 0.345677577507 -0.915276909521 0.028356322578 0.001579465640 0.034117315442 0.006497320527 0.104322764339 -1.048099343436
5.268121999000 0.349731589341 -0.920669761894 0.031696508545 0.001298794059 0.034730542426 0.004618831762 0.103615678028 -1.010143293569
5.269455111000 0.354902439682 -0.917198888398 0.029422878323 0.001671170953 0.035924493484 0.005242726062 0.101578135476 -1.042805588049
5.270788222000 0.360273723898 -0.909063453002 0.031614128923 0.003651204907 0.033596025231 0.005635328788 0.096237980033 -1.008498416150
5.272121333000 0.357062490532 -0.912089223717 0.031708561395 0.003110313093 0.034401977888 0.005935912716 0.093847948425 -1.025285194968
5.273454444000 0.362137799445 -0.908094100012 0.032694471774 0.002500231833 0.035452140501 0.006428114051 0.096719637774 -1.012796735947
5.274787555000 0.368249848689 -0.910841548790 0.029543302379 0.003642060066 0.033881295821 0.005344386713 0.080201994468 -1.008863548232
5.276120666000 0.365234831681 -0.906158793840 0.030132865174 0.003506422091 0.036980646982 0.005719784275 0.080010425637 -1.026711018033
5.277453777000 0.367944026609 -0.907845446640 0.029613180095 0.002949064085 0.035484472334 0.006641040940 0.105980837871 -1.037669796201
5.278786888000 0.377028917538 -0.909052968033 0.031037983274 0.004694106888 0.035579504405 0.006398979004 0.121730672121 -1.010629680112
5.280119999000 0.373372297101 -0.910505852757 0.029510049227 0.002248356167 0.035198375285 0.004102736279 0.100194790918 -1.014029901993
5.281453111000 0.383588180594 -0.908437050663 0.031971769677 0.002857191600 0.035098031867 0.005480226255 0.102903261488 -1.009698307246
5.282786222000 0.380880939506 -0.904816928507 0.030396971171 0.003359610034 0.036872962264 0.005937725588 0.077782791876 -1.034653207063
5.284119333000 0.384792867231 -0.907350076333 0.030326932923 0.002888522627 0.037002161073 0.005156668632 0.091203213585 -1.036370971191
5.285452444000 0.389796401727 -0.898244004008 0.029824590869 0.005026201455 0.036885680656 0.004980836097 0.092697462324 -1.021700113827
5.286785555000 0.389744814259 -0.902012882565 0.031357751263 0.005258088131 0.035718323223 0.005890241429 0.100862595993 -1.018931373360
5.288118666000 0.394237073581 -0.896168833714 0.030736078059 0.004166493477 0.036333370714 0.006341704761 0.120690100721 -1.014353768228
5.289451777000 0.397632057722 -0.890170580972 0.031712635029 0.004967238200 0.037041719882 0.004442778555 0.078805734846 -1.014442410073
5.290784888000 0.403465191452 -0.892608988361 0.029419457484 0.004695195855 0.034932412441 0.004905473144 0.078037862418 -0.998846325147
5.292117999000 0.407029232914 -0.902821621273 0.033018242572 0.003812846046 0.037614057979 0.004049954345 0.086954596494 -1.002051674174
5.293451111000 0.404195672663 -0.896314386551 0.031285845301 0.005810382719 0.037075166941 0.004567761343 0.091725687311 -1.018289921834
5.294784222000 0.405771624565 -0.888984236025 0.032507350135 0.004783587220 0.038038464590 0.006288941592 0.101319952188 -1.007572434782
5.296117333000 0.403227722960 -0.902064737269 0.033496961411 0.003563447451 0.035951735217 0.006268330598 0.102334884368 -1.013748602580
5.297450444000 0.412908839930 -0.892154293833 0.029005847485 0.004566078949 0.037887229343 0.004685806575 0.072399933477 -1.003715593156
5.298783555000 0.410010526296 -0.891541542449 0.031321370517 0.002416943943 0.038117558448 0.006693944404 0.085658267297 -1.015174120678
5.300116666000 0.406799045101 -0.885242998509 0.030451008090 0.004927027427 0.036520264097 0.005769481459 0.078927867450 -1.004884911093
5.301449777000 0.419206351561 -0.883596145667 0.031091320135 0.006261109682 0.035535329996 0.003970145647 0.083338669048 -0.997720934472
5.302782888000 0.412699860779 -0.888778939082 0.029168176755 0.005874192020 0.034394376296 0.005555351338 0.091953292948 -0.993869083646
5.304115999000 0.417875179372 -0.892005160515 0.029712008828 0.005965612031 0.037791658621 0.004510152658 0.070078670780 -1.000112217319
5.305449111000 0.413572041072 -0.900356537539 0.029116432039 0.002888931593 0.037248249248 0.002294898352 0.087839446805 -1.000491684568
5.306782222000 0.428607321988 -0.898480901779 0.029878565216 0.004625296214 0.036472554477 0.004922992825 0.096654229539 -0.985731501188
5.308115333000 0.413630343160 -0.873066802577 0.028989109403 0.004733789520 0.037303081470 0.004690759566 0.065794827746 -0.988961875401
5.309448444000 0.424712451727 -0.884941735168 0.030261654249 0.007076756055 0.036891145739 0.004243236370 0.084195177312 -0.982162522889
5.310781555000 0.422782680007 -0.891195585830 0.031474785811 0.003226117743 0.036003333105 0.003652318185 0.092054591060 -1.001488404633
5.312114666000 0.436294733122 -0.900200864788 0.031778947764 0.005690275283 0.038139463509 0.005633663534 0.077329427818 -0.999092324578
5.313447777000 0.442886636920 -0.877614378761 0.030188569366 0.006649288116 0.037798527603 0.005998365376 0.064744383443 -0.980795155517
5.314780888000 0.415228548338 -0.876073318538 0.031324867399 0.006759996061 0.038099505785 0.006013226843 0.069760422603 -0.999887729484
5.316113999000 0.423640556688 -0.876461961584 0.030071478656 0.004801936140 0.035846853345 0.004520983867 0.087379811182 -0.992702015184
5.317447111000 0.450565627751 -0.885465561908 0.030871326375 0.006775059475 0.037742695543 0.004744917720 0.078042489569 -0.998438696414
5.318780222000 0.436606511016 -0.962672906290 0.034854410007 0.000617078656 0.042015640757 0.003066338664 -0.025466670832 -1.111983128624
5.320113333000 0.443930359747 -0.955301281509 0.032921397693 0.001794807137 0.042293904033 0.002420983274 -0.003682793558 -1.111587829449
5.321446444000 0.434087789135 -0.969537759281 0.032940307355 0.003749244763 0.041416449945 0.003982129173 -0.027767124257 -1.131304832282
5.322779555000 0.440826807954 -0.959297681034 0.034952754400 0.003632636350 0.044055123410 0.002122175546 -0.011015725416 -1.133735747115
5.324112666000 0.420415991145 -0.947988314126 0.035701693731 0.003467296951 0.042192233334 0.002499645409 -0.014029017861 -1.118485737550
5.325445777000 0.423135661791 -0.951486956728 0.031658102662 0.002849859972 0.041808152919 0.002523049342 -0.028662194452 -1.132604088998
5.326778888000 0.445164178213 -0.970470345456 0.035580150621 0.002973233140 0.043742203527 0.003181486823 -0.024173554995 -1.118618553460
5.328111999000 0.448689152603 -0.885737787414 0.032015694599 0.005885747775 0.036562566551 0.005073556488 0.059884463907 -0.997965598690
5.329445111000 0.434120264104 -0.879833477963 0.031717639086 0.005887012623 0.036925661102 0.004467749947 0.082164516566 -1.002658449014
5.330778222000 0.456206844727 -0.867201537110 0.030430033491 0.006209278405 0.038218712666 0.004590786955 0.065107942319 -1.001160149722
5.332111333000 0.435012852544 -0.892488382114 0.033372136281 0.004609305787 0.036929642668 0.003980012641 0.090449763604 -1.006569654538
5.333444444000 0.435911452946 -0.911568630749 0.031962073451 0.002679248836 0.037068772234 0.004236192435 0.067648092366 -1.005087932962
5.334777555000 0.437045521717 -0.882651343372 0.032548657159 0.003502636786 0.036798004109 0.003495133266 0.077857635391 -1.015730233040
5.336110666000 0.439089805126 -0.882756156506 0.029839838761 0.006617886738 0.037094335313 0.005121183658 0.079420130572 -0.999702516441
5.337443777000 0.442987137679 -0.891480910791 0.030700867276 0.004993828527 0.037128451513 0.003528266232 0.080676436659 -1.001143257403
5.338776888000 0.443275097480 -0.892329585814 0.030897103567 0.004458773514 0.036051296356 0.004795206731 0.077506800084 -1.004270557748
5.340109999000 0.426735980366 -0.909838580727 0.032293430834 0.004595823527 0.034067213320 0.007738981119 0.074589718518 -1.000537164378
5.341443111000 0.446199332407 -0.876151168587 0.031396212962 0.004887503230 0.035277854981 0.007534300024 0.072434089649 -1.001419105787
5.342776222000 0.442721896975 -0.881730629559 0.031657133633 0.005432527064 0.035369018888 0.006445805546 0.083826207230 -1.012093607491
5.344109333000 0.450303682593 -0.881729869168 0.030393648041 0.003138398995 0.034761824791 0.007291340832 0.077185817169 -1.011123068816
5.345442444000 0.433015505415 -0.901231846043 0.032533823040 0.005739275866 0.034965839692 0.007946736968 0.081378171172 -1.002897713239
5.346775555000 0.441582612930 -0.902986194832 0.031001703276 0.005608016690 0.035696137279 0.007872373027 0.079861105687 -1.007835114305
5.348108666000 0.419254996913 -0.897817682347 0.031795716034 0.004093825477 0.035015012525 0.007114368120 0.081655826966 -1.003380621246
5.349441777000 0.439032035717 -0.879976884938 0.031661508887 0.004694819732 0.034938100550 0.007320119703 0.084084942202 -1.006656412225
5.350774888000 0.440124664608 -0.891565089672 0.031900998849 0.006179817655 0.035451726577 0.008465611216 0.084123259015 -1.011507909945
5.352107999000 0.453419445995 -0.887148678694 0.029846979931 0.006191355270 0.035544748670 0.008106894209 0.081728640281 -1.007457892607
5.353441111000 0.430028289884 -0.873750487467 0.031987672228 0.005447340176 0.034759624978 0.008039762396 0.085130406655 -1.011896636856
5.354774222000 0.418007898011 -0.880890753196 0.029373777860 0.003819231761 0.033722857786 0.008324275081 0.088703656303 -1.011991657033
5.356107333000 0.446229459290 -0.890522001007 0.032162332683 0.004381041846 0.035145643218 0.007384142883 0.087467235554 -1.008888847234
5.357440444000 0.429399099743 -0.897465463213 0.031702644610 0.004655986561 0.034992731265 0.008380000593 0.087900667388 -1.011883567589
5.358773555000 0.441541387330 -0.906280495077 0.032775434350 0.006718117837 0.034517399928 0.008033487749 0.093366576600 -1.007854253509
5.360106666000 0.447383423291 -0.882695018738 0.030882603529 0.005253525187 0.034757596014 0.007978192176 0.092676449082 -1.012049234125
5.361439777000 0.438586277247 -0.895414482216 0.031458346499 0.007314427620 0.034620231147 0.009108903229 0.091388460661 -1.008009377930
5.362772888000 0.418365906167 -0.868423582824 0.031524325667 0.005962021288 0.033442096438 0.007960225151 0.094673329971 -1.007332234560
5.364105999000 0.438829267883 -0.900604378668 0.030735362679 0.007278678535 0.034271445978 0.008780540782 0.096756360035 -1.009343134523
5.365439111000 0.444162231750 -0.886562586800 0.030803295175 0.008434523241 0.035102970153 0.009321603046 0.100016567934 -1.014058813073
5.366772222000 0.436383898543 -0.890999645917 0.032362560921 0.006277636285 0.034188054014 0.008563167964 0.103387462172 -1.013911096665
5.368105333000 0.426597391674 -0.887931569281 0.032237441632 0.005536978893 0.033500755843 0.008264463453 0.095128384645 -1.013442157289
5.369438444000 0.433641663011 -0.895387159720 0.032823895595 0.006171701992 0.033974509998 0.008485870039 0.108155261848 -1.015159993030
5.370771555000 0.440293783604 -0.906098029263 0.031731449286 0.008560678901 0.033769173607 0.009577518817 0.103915053679 -1.017316745087
5.372104666000 0.437995024003 -0.888851495025 0.031726849880 0.006528670217 0.033770351369 0.008811632172 0.102389420980 -1.007185909281
5.373437777000 0.419592421723 -0.887415135403 0.031913347352 0.008571581331 0.033226917116 0.008772830331 0.100629996896 -1.015046822995
5.374770888000 0.437085133555 -0.901226824949 0.030903280147 0.006520694765 0.033862626342 0.009171714919 0.102964380683 -1.011915923400
5.376103999000 0.438615587638 -0.887889100676 0.030096591303 0.008493599592 0.033321663412 0.009331622464 0.102764835422 -1.015633007276
5.377437111000 0.420082907762 -0.899971625506 0.031243369573 0.006872028841 0.033379088878 0.009337922781 0.105017616843 -1.016851935299
5.378770222000 0.406355608334 -0.913026868345 0.031499476730 0.005571977654 0.032910970144 0.007859406748 0.097359986896 -1.017692915264
5.380103333000 0.441547952630 -0.891153430582 0.031458670355 0.008974213393 0.034004307434 0.010209535899 0.102363852258 -1.013136398417
5.381436444000 0.427686962964 -0.893267243730 0.031134254658 0.008661277454 0.033301469358 0.009342396924 0.099911052884 -1.012259860936
5.382769555000 0.423094394479 -0.880737904842 0.030039639602 0.009786394698 0.032965978116 0.009713202250 0.114211031765 -1.005866537055
5.384102666000 0.435232853275 -0.905119959278 0.032570814881 0.009247049780 0.032916048556 0.009286877933 0.116877092447 -1.009332286350
5.385435777000 0.446649890165 -0.899712437175 0.031969767739 0.008064573130 0.032863138913 0.009072915222 0.107770303956 -1.007321844180
5.386768888000 0.435773332136 -0.902098317091 0.032560820876 0.008727701107 0.032526348738 0.009973687709 0.104644438832 -0.997681823232
5.388101999000 0.417628468150 -0.907654954571 0.031448137779 0.009087328846 0.032151378878 0.009928093404 0.114970631826 -1.017183365888
5.389435111000 0.418118686178 -0.909757509448 0.031444390614 0.009798087747 0.032317639245 0.009418894591 0.112461752453 -1.009248738954
5.390768222000 0.427946322221 -0.882981029718 0.031909154142 0.011126034105 0.032065420658 0.010443557549 0.120121968835 -1.014590824309
5.392101333000 0.437951691223 -0.896632698142 0.030826117593 0.008922156405 0.032835686785 0.009122417604 0.109103575602 -1.012913681796
5.393434444000 0.435522120626 -0.897715746071 0.031689684357 0.009916482024 0.032642377634 0.009959703611 0.121984890054 -1.000222423518
5.394767555000 0.419334190456 -0.902540846094 0.031952942749 0.009828270938 0.032179818999 0.009839909619 0.120465509089 -1.006543830296
5.396100666000 0.395002402799 -0.906465738975 0.031286316032 0.008481128194 0.031813314546 0.009489926140 0.113706138772 -1.010983891299
5.397433777000 0.408311671836 -0.891177308238 0.030682369964 0.011185862522 0.032205922326 0.009579767149 0.103715987761 -0.999040163338
5.398766888000 0.422555111469 -0.903086485822 0.030836990142 0.010895869136 0.031799431607 0.010059025486 0.112983254195 -0.994741246138
5.400099999000 0.422855339648 -0.878652395272 0.031418624133 0.011476409521 0.031724828711 0.009811172079 0.102577171314 -1.008069108983
5.401433111000 0.420786967375 -0.902806590081 0.031974587605 0.010336227384 0.031702115279 0.010139621940 0.101831326134 -1.007371759182
5.402766222000 0.415505159003 -0.900801423750 0.032518468557 0.010647564894 0.031525307053 0.009998762987 0.110611681684 -1.007850589587
5.404099333000 0.441112424225 -0.896753366196 0.031589794218 0.011167221795 0.032514017137 0.010655490722 0.129188237921 -1.013338262048
5.405432444000 0.417455725346 -0.896174523922 0.031363661930 0.011306071793 0.031873352322 0.010391403029 0.115513981853 -1.008508873535
5.406765555000 0.430733861696 -0.899767821661 0.030730199974 0.012933273712 0.032129803640 0.011568527189 0.122617204288 -1.002951501081
5.408098666000 0.417607797631 -0.905070545098 0.030847074794 0.012157488602 0.032040131280 0.011203150701 0.126453337888 -1.022047663408
5.409431777000 0.427175879834 -0.912792730955 0.030745170778 0.012424766272 0.031296635626 0.010548008684 0.113198415115 -1.006634744663
5.410764888000 0.409790407368 -0.910865788977 0.031212351884 0.012519734409 0.031803669383 0.010386709962 0.096464826513 -1.013110994466
5.412097999000 0.420350766349 -0.911612711973 0.030897925583 0.013010037939 0.031408199035 0.010381007772 0.117874214180 -1.015504154908
5.413431111000 0.414882408534 -0.905571342567 0.030348939045 0.012949436987 0.031704458454 0.010521910034 0.102047290936 -1.014349868209
5.414764222000 0.414204473606 -0.907325505375 0.030326320976 0.012412354621 0.031890314535 0.011240042095 0.116989987569 -1.011280933379
5.416097333000 0.401853558936 -0.911986833431 0.030515438842 0.012182602289 0.031359535520 0.011035425126 0.117495023214 -1.020558544110
5.417430444000 0.411324658972 -0.898736061930 0.030862080978 0.013294802637 0.031029364028 0.010745783573 0.116374554111 -1.005299180844
5.418763555000 0.420390181341 -0.908344648221 0.031148186580 0.012980057228 0.031598364840 0.010916718326 0.121771646418 -1.023418365463
5.420096666000 0.411138323405 -0.903168785030 0.030217575410 0.012664954868 0.031127835047 0.010713974191 0.100835852124 -1.007581862949
5.421429777000 0.416084766922 -0.914554344544 0.031039140657 0.012647330409 0.031634828316 0.010766669416 0.118437687950 -1.017614601842
5.422762888000 0.412372689182 -0.919514779489 0.030751431676 0.013028827385 0.031585918822 0.011299498522 0.121700962276 -1.015451706398
5.424095999000 0.409311136375 -0.901890317413 0.030163187296 0.012766367238 0.030992822035 0.011817155809 0.118186673838 -1.011687081734
5.425429111000 0.411362593223 -0.907876354371 0.030496534049 0.014186486166 0.031339800299 0.011523024917 0.121596287091 -1.013559078796
5.426762222000 0.416479200434 -0.901046807130 0.029623431483 0.014781424145 0.031465367322 0.012183861046 0.125162371291 -1.021586762840
5.428095333000 0.408006945816 -0.906596689916 0.029799984865 0.014422767397 0.031816923119 0.011466700960 0.117540229762 -1.013763133795
5.429428444000 0.413430188461 -0.904526025344 0.029048213334 0.014153879486 0.030957015630 0.011391124984 0.114951273967 -1.008313006794
5.430761555000 0.406491995307 -0.900859983989 0.029093324060 0.014238015122 0.031368871291 0.012270604645 0.122995799030 -1.031020410679
5.432094666000 0.411693961334 -0.899296030233 0.028894088295 0.013883564369 0.031087409889 0.012226545017 0.128796165849 -1.017206067053
5.433427777000 0.412226753220 -0.904806449618 0.030574631469 0.014053954832 0.031515556938 0.011649202603 0.116107373951 -1.027102645966
5.434760888000 0.407277939253 -0.909242540080 0.030712234730 0.013627601315 0.031898859356 0.011719845698 0.112782353340 -1.032624569528
5.436093999000 0.407725246170 -0.908104212690 0.029436366967 0.014320125771 0.031817613594 0.012785554725 0.129798662637 -1.037331205853
5.437427111000 0.406036392149 -0.903936651403 0.028977347041 0.014458447956 0.031554590618 0.011977741184 0.120478403984 -1.016425460405
5.438760222000 0.407069705861 -0.904020843603 0.029119746158 0.014617355755 0.031695490297 0.012060242060 0.116841157731 -1.020674328650
5.440093333000 0.402588982539 -0.906353012953 0.029993353328 0.014117305051 0.031538811052 0.012021609653 0.121897584001 -1.021434258887
5.441426444000 0.407763843619 -0.909124096371 0.029448047619 0.013855492015 0.031667057409 0.012076952103 0.116619324271 -1.022977934535
5.442759555000 0.408133492620 -0.904693795253 0.029400176586 0.014750007049 0.031458641851 0.012593299283 0.120816711813 -1.025240397073
5.444092666000 0.407479992724 -0.906234776622 0.028638618584 0.014093340338 0.031525494868 0.012283622565 0.116411523468 -1.026932921472
5.445425777000 0.407108285826 -0.904876959759 0.028665253722 0.013699861557 0.031382722276 0.012813719873 0.122060141252 -1.023188042917
5.446758888000 0.403125881376 -0.907259143701 0.028251298815 0.013547567836 0.031965523499 0.012783040780 0.117983444364 -1.031926238662
5.448091999000 0.405794282348 -0.903579293278 0.028871372592 0.014666646035 0.032056881544 0.012072106932 0.121493261442 -1.027426104961
5.449425111000 0.405559411966 -0.904652644063 0.027927109612 0.014598648034 0.031792053707 0.013107114539 0.123927162579 -1.029690356253
5.450758222000 0.406097369932 -0.905145881034 0.029041981267 0.014392117616 0.031673999208 0.012527969460 0.120452090246 -1.030468470203
5.452091333000 0.404901055955 -0.904760033441 0.029313682368 0.013296743905 0.031999699588 0.012796968415 0.118641815905 -1.032774286713
5.453424444000 0.404024896481 -0.904925916587 0.028712562569 0.013048872573 0.031837826590 0.012875057257 0.117214598603 -1.032019337312
5.454757555000 0.401218460047 -0.903669800246 0.028104031758 0.014212106271 0.032490823540 0.012966579159 0.118818685620 -1.031044315145
5.456090666000 0.409571197073 -0.905737291782 0.028234431972 0.013727216889 0.031991991155 0.013025845701 0.117723910181 -1.034329303208
5.457423777000 0.402662676690 -0.905329745533 0.029557406605 0.013927497441 0.032475140026 0.012805073850 0.119432911823 -1.033399604767
5.458756888000 0.408254796980 -0.902966937377 0.029189233614 0.014217336270 0.031934085869 0.013193379390 0.124351709119 -1.035203758737
5.460089999000 0.405740749658 -0.902187524061 0.028659424348 0.013366175226 0.031929450644 0.013005453193 0.121180839797 -1.033702659766
5.461423111000 0.402663305555 -0.898813569991 0.028207126455 0.013007364532 0.032018140568 0.013123549788 0.115417072877 -1.035345745772
5.462756222000 0.403995217473 -0.903001839546 0.027958785305 0.013915774329 0.032060594126 0.013221532638 0.122799408555 -1.030361308027
5.464089333000 0.401334947366 -0.909091948303 0.028246230781 0.014210518325 0.032378600732 0.013268098961 0.117782552667 -1.030001022084
5.465422444000 0.397765444440 -0.902613776505 0.028054690461 0.013713383731 0.031931561784 0.013098754972 0.116692059404 -1.032348974345
5.466755555000 0.391501536130 -0.894530008044 0.028991105787 0.012933552693 0.032156098815 0.013247633341 0.118490834306 -1.037248647645
5.468088666000 0.401564492452 -0.900486963472 0.028213031470 0.011980631366 0.032499472116 0.013237709189 0.121411704265 -1.035892092019
5.469421777000 0.414583961446 -0.892563290704 0.027029875940 0.012407948082 0.032791379799 0.013802680349 0.117641246556 -1.034046293149
5.470754888000 0.399287789483 -0.901034338697 0.027468677507 0.012092424504 0.032405451840 0.013264855425 0.119140729479 -1.032768130257
5.472087999000 0.398724234238 -0.901020043239 0.028236213320 0.013105707130 0.032848246841 0.013187949258 0.116950930915 -1.033341515249
5.473421111000 0.399135880488 -0.904893622149 0.028479338488 0.012082085578 0.032287155638 0.013683271315 0.121830857080 -1.035699451197
5.474754222000 0.400732476146 -0.905365791511 0.029405092358 0.012354524700 0.032806218817 0.012927887221 0.117657899754 -1.038130343268
5.476087333000 0.409141578922 -0.903729791094 0.028985002111 0.012629556166 0.033394669132 0.013327519597 0.118704010637 -1.040212899016
5.477420444000 0.402297469638 -0.905415148009 0.028138603456 0.011871991625 0.032695218355 0.013315993285 0.112630515357 -1.032267730503
5.478753555000 0.401759520233 -0.889441695499 0.027487957630 0.011490427986 0.032128069529 0.013648804569 0.113724575127 -1.035685282935
5.480086666000 0.410490789527 -0.904690639180 0.029384804802 0.012443135482 0.033044490654 0.013688301450 0.118257213795 -1.028168514143
5.481419777000 0.411382473408 -0.891373631592 0.027831772367 0.011565058388 0.032967826287 0.013591777195 0.105826735771 -1.032467906562
5.482752888000 0.412857028310 -0.899942206078 0.028419097386 0.012922978382 0.032495684135 0.013155295905 0.119792477340 -1.031650772731
5.484085999000 0.398069252511 -0.903885702747 0.029614611111 0.011750791781 0.033580651921 0.013647341438 0.118875931490 -1.051480897978
5.485419111000 0.425237323396 -0.898404531573 0.029077581990 0.013062248117 0.032226458493 0.013808139936 0.112008375075 -1.032855709702
5.486752222000 0.392134899337 -0.898371586239 0.028353610639 0.010258911760 0.033282504487 0.013292754366 0.113791240946 -1.046959219417
5.488085333000 0.406287876119 -0.898156036817 0.028915613209 0.010849083549 0.032756955673 0.014477070202 0.118956083779 -1.031072389436
5.489418444000 0.426319230449 -0.904684673007 0.030445057626 0.011754255499 0.033357449361 0.014614405404 0.119066648845 -1.022780284481
5.490751555000 0.397359865558 -0.887806378400 0.027732637535 0.009998103084 0.032726484293 0.014057357094 0.109896366659 -1.034643007359
5.492084666000 0.410365324209 -0.905776499263 0.029970424136 0.012348566199 0.033605658677 0.014412237795 0.139191290791 -1.043600465967
5.493417777000 0.384999528049 -0.878087767323 0.028201518672 0.011821513344 0.032570983624 0.013290954261 0.100541604530 -1.032052826809
5.494750888000 0.384946181877 -0.895246598008 0.028556784315 0.009817163190 0.032702105874 0.013135393207 0.095781298942 -1.043579561816
5.496083999000 0.391727763690 -0.900543935274 0.029711061823 0.008856288380 0.032578720926 0.014550676154 0.106578981597 -1.035367876121
5.497417111000 0.394888365167 -0.915875072415 0.030026361948 0.010983046198 0.032674765717 0.014291801434 0.106103159150 -1.024800457350
5.498750222000 0.384050012909 -0.895998278360 0.030025374042 0.011058973475 0.032490131826 0.014001265032 0.102849854089 -1.023574956778
5.500083333000 0.404085932644 -0.891833640945 0.030815376355 0.010668467962 0.032582925263 0.014753942346 0.120838454237 -1.035045696524
5.501416444000 0.386922718709 -0.892912277787 0.028627595497 0.009294108666 0.032115585911 0.014547841412 0.117502640706 -1.033160899935
5.502749555000 0.396731083569 -0.890397855347 0.029688930015 0.011234179109 0.032196969444 0.014535185254 0.098582965565 -1.023425505273
5.504082666000 0.425028801202 -0.894110332681 0.028749169030 0.010300121642 0.032819834904 0.015104325708 0.112997970733 -1.031769997814
5.505415777000 0.394507675368 -0.875879166992 0.029068231524 0.011105608329 0.032774516818 0.014975349200 0.112079323224 -1.044398999800
5.506748888000 0.406970182655 -0.897453225467 0.029989008530 0.009581799168 0.032792726561 0.015210955431 0.114281416356 -1.031785422820
5.508081999000 0.411913900433 -0.894536612992 0.031496908940 0.008724485264 0.033090484301 0.014893102228 0.088816435819 -1.050586936625
5.509415111000 0.401643384916 -0.893859703010 0.029984812732 0.009926535482 0.034079737695 0.015078550155 0.109422856366 -1.052803202359
5.510748222000 0.396630658251 -0.882833126205 0.029770926068 0.009862433869 0.032466683791 0.014655500483 0.078483863052 -1.012534667456
5.512081333000 0.399118537069 -0.906133300785 0.030931182251 0.008652086363 0.033651459522 0.015773095850 0.088433403579 -1.045850591270
5.513414444000 0.383014783964 -0.899668541477 0.032661012884 0.008125500373 0.032763574517 0.014962451422 0.116241128508 -1.048696645381
5.514747555000 0.397194708702 -0.897662632161 0.032173352771 0.008939754750 0.033035753587 0.015249304354 0.096982372114 -1.039864436335
5.516080666000 0.421140939687 -0.893519830716 0.031411342197 0.008730117702 0.033656189524 0.016289129667 0.104513093921 -1.038386375490
5.517413777000 0.409609055827 -0.892444091706 0.033329990917 0.009146247622 0.032965992705 0.016102035343 0.104304664208 -1.051577822412
5.518746888000 0.416950599891 -0.861048635427 0.029152864416 0.010269729975 0.032163436569 0.016127611112 0.093073107199 -1.027838258008
5.520079999000 0.391180329147 -0.899768705008 0.032436739762 0.008491090889 0.031716788048 0.014486852271 0.085482992146 -1.022990502904
5.521413111000 0.410811483413 -0.894242594755 0.032792734573 0.010958477348 0.033125182243 0.014859176693 0.100189945688 -1.036259442141
5.522746222000 0.406601486372 -0.887726866444 0.030811342609 0.010084076107 0.032616809332 0.014925567751 0.064522757892 -1.032584295870
5.524079333000 0.385249970941 -0.883727153264 0.029504324706 0.009118674134 0.030839362340 0.015812276758 0.093385810351 -1.027643706020
5.525412444000 0.388550052444 -0.905133851752 0.030992461608 0.008042103932 0.032958110449 0.015295508717 0.084841390521 -1.033041866687
5.526745555000 0.411122235720 -0.899655294014 0.032038433910 0.008769544777 0.033680094202 0.015823892538 0.092765892329 -1.039545443434
5.528078666000 0.403707652604 -0.885773102809 0.031529622057 0.010631766426 0.032378835324 0.015761769554 0.089243691213 -1.035185339508
5.529411777000 0.398441186660 -0.882995682593 0.029997339735 0.010037580210 0.032339825057 0.015240113512 0.096311907132 -1.028856617474
5.530744888000 0.394097082569 -0.886259310652 0.032954752515 0.011319229785 0.031401996439 0.015724080617 0.095374069070 -1.022964075294
5.532077999000 0.395360471139 -0.894486965537 0.030418482806 0.009830505105 0.032374093003 0.015106082332 0.085046704083 -1.030609773131
5.533411111000 0.403545253802 -0.877541719408 0.032576904256 0.010775026411 0.031146082749 0.015087827227 0.097882121895 -1.024567000038
5.534744222000 0.402193115395 -0.872060203236 0.032850214759 0.009916748649 0.032896801005 0.014586502698 0.086522348249 -1.036136776342
5.536077333000 0.398098014902 -0.901634060646 0.033778725020 0.009306129686 0.031643052506 0.015072580659 0.099596762856 -1.035032216450
5.537410444000 0.385083524108 -0.894159458393 0.030666909531 0.009989739924 0.031376315337 0.015109053713 0.086296003342 -1.024974790447
5.538743555000 0.398539763540 -0.886630074252 0.032771604266 0.010362775812 0.031969310745 0.014946456387 0.077519383297 -1.028880829363
5.540076666000 0.386255438236 -0.896418061947 0.030471528595 0.009550747130 0.031144460995 0.015125554214 0.083660512642 -0.998498673725
5.541409777000 0.401534213632 -0.878926201496 0.030022686508 0.008972837861 0.032236206485 0.016461992099 0.070492444451 -1.027677516857
5.542742888000 0.399874969447 -0.890474857908 0.032639274747 0.007415001001 0.031594215961 0.015367886550 0.080338006488 -1.042336853095
5.544075999000 0.395114037451 -0.891128785996 0.033797192835 0.012183813108 0.033635965078 0.014914071734 0.074785248143 -1.016657633224
5.545409111000 0.382847481994 -0.907889901683 0.031192339459 0.010632663812 0.032119788842 0.015344794301 0.086709641761 -1.010607415691
5.546742222000 0.402420750697 -0.882442716107 0.032843923647 0.011245034199 0.032436811319 0.015347556768 0.079713379391 -1.034251909105
5.548075333000 0.408978207326 -0.885465363829 0.030567041480 0.010642053005 0.032870965847 0.015326217326 0.072844183026 -1.021958555866
5.549408444000 0.389388204477 -0.883661949090 0.031314603521 0.009463839193 0.032544802341 0.015187687423 0.068267837009 -1.023416964063
5.550741555000 0.387022620145 -0.882005775842 0.030974985572 0.010717994445 0.030724470558 0.015352975755 0.073422175713 -1.021852721854
5.552074666000 0.397931592600 -0.877129283704 0.031135080413 0.010421426628 0.032297304260 0.017059678923 0.071356310907 -1.023498669296
5.553407777000 0.400175872627 -0.862564183516 0.033216497644 0.010305087237 0.031583377293 0.014431935145 0.070490210154 -1.025875941355
5.554740888000 0.399526994859 -0.894902338473 0.033893826867 0.011231621772 0.032217605799 0.016529079247 0.065966258762 -1.020979977940
5.556073999000 0.389994670064 -0.888863883663 0.032193286971 0.007468174871 0.032602151956 0.015627373269 0.063627408595 -1.021622591952
5.557407111000 0.389848558632 -0.886676889363 0.032920421499 0.007245038145 0.031337093571 0.016152438709 0.063088886356 -1.016558536802
5.558740222000 0.394490054868 -0.875175588259 0.032523285934 0.008044414752 0.031270587216 0.015912446493 0.067440006937 -1.020494217725
5.560073333000 0.390559459686 -0.889695415207 0.033833683682 0.009618448434 0.031529828715 0.015927279290 0.065004128665 -1.018813753125
5.561406444000 0.391012559655 -0.881400088132 0.031066250460 0.011130408385 0.032846010096 0.015157102860 0.066720862026 -1.020348352253
5.562739555000 0.396057326133 -0.883399532897 0.031116877451 0.011897563894 0.031726719650 0.015120087457 0.067742472829 -1.013531314040
5.564072666000 0.388041210432 -0.892941790839 0.034163263000 0.011499236063 0.032158901123 0.014760570149 0.064434658346 -1.017505792149
5.565405777000 0.383397136819 -0.881774220678 0.034881388890 0.010466466524 0.031943954327 0.014709939574 0.059148344840 -1.026136183740
5.566738888000 0.386498272063 -0.879805152642 0.033584375112 0.007683322797 0.031128592027 0.015500688808 0.057387380875 -1.019845615000
5.568071999000 0.389051896590 -0.884402944111 0.031668621311 0.009269795923 0.030789655229 0.016571267718 0.061358706491 -1.016917359346
5.569405111000 0.388810922082 -0.883320512049 0.031693217940 0.011214246837 0.032415427306 0.014658380589 0.063636564949 -1.015541086627
5.570738222000 0.385322281952 -0.879919536440 0.032630555946 0.011094161269 0.032583111735 0.014957130152 0.057760659512 -1.021334873964
5.572071333000 0.383459563654 -0.878502564413 0.031851328571 0.009233631116 0.031206997546 0.013583926063 0.057461473758 -1.015454052819
5.573404444000 0.382391984589 -0.881428083959 0.034145398460 0.009534159500 0.031847908261 0.014557791254 0.051154935040 -1.021852833550
5.574737555000 0.385236679118 -0.878695568535 0.032075394098 0.008428742825 0.031177118115 0.016101764812 0.043174044473 -1.019415497064
5.576070666000 0.383783914413 -0.889504741469 0.033003387819 0.011631199957 0.031809769494 0.015321471268 0.051535802124 -1.006599757775
5.577403777000 0.376121736821 -0.886425000339 0.030844125445 0.011132910082 0.031622566427 0.014712753537 0.040293934991 -1.014202825765
5.578736888000 0.382156744909 -0.882839539360 0.033125869194 0.011516047009 0.031144507528 0.014446923135 0.048974635625 -1.012738618967
5.580069999000 0.382919562921 -0.888240591834 0.032195276941 0.010400390032 0.030747273598 0.015449484028 0.047163992029 -1.008263823095
5.581403111000 0.381126504023 -0.885589915682 0.032769926320 0.008837549130 0.031067788262 0.013698517582 0.057323353183 -1.013072155839
5.582736222000 0.391710922696 -0.885713113442 0.030066488787 0.010552915375 0.032370225616 0.014994265765 0.056507655925 -1.018003810158
5.584069333000 0.388231456811 -0.883250824523 0.030545767105 0.011748083393 0.031874123740 0.014334498531 0.042184537338 -1.012222210434
5.585402444000 0.385491561030 -0.885240316566 0.029262109482 0.008389218916 0.031049047431 0.013521800828 0.036775208818 -1.007383064532
5.586735555000 0.387244860819 -0.887119546882 0.030735526351 0.010069482916 0.031640024367 0.013400068897 0.039976277601 -1.004779983349
5.588068666000 0.383132160994 -0.881435317406 0.031566203697 0.011852819572 0.030476797562 0.014210159061 0.056071252176 -1.006457531313
5.589401777000 0.368976644345 -0.888427922933 0.032415300023 0.009660867984 0.032516334389 0.013364696364 0.061952940103 -1.000892459730
5.590734888000 0.375242118890 -0.883040425386 0.030008732117 0.011714261715 0.031247531749 0.013368245289 0.045211894182 -1.006506788543
5.592067999000 0.386661624251 -0.879637002379 0.029070695205 0.010949562830 0.032464897951 0.014045865024 0.028149796479 -1.004259173115
5.593401111000 0.371551287313 -0.873461664725 0.031147065274 0.010629713441 0.028961452510 0.013715101115 0.043160993533 -0.992935347203
5.594734222000 0.371190107312 -0.886752248156 0.030458392351 0.006311814100 0.030809905579 0.014937460457 0.036369934735 -1.045476742964
5.596067333000 0.366902673043 -0.885292472521 0.031469922750 0.009735186369 0.030991869566 0.013719951185 0.052835856357 -0.994165205868
5.597400444000 0.369258687107 -0.889054489197 0.031298113350 0.009945895029 0.030358636172 0.013487353155 0.040337026395 -0.993468744346
5.598733555000 0.392341586591 -0.891602878541 0.030630695042 0.008825533350 0.030310176022 0.013120244680 0.049980732525 -0.999829741736
5.600066666000 0.387312537310 -0.886515970581 0.031697662917 0.010444743608 0.030083052825 0.014622609328 0.045317112553 -1.023586652206
5.601399777000 0.365182223026 -0.875261938145 0.031506214569 0.007354423511 0.030837075362 0.013840245303 0.025959644644 -0.999762488267
5.602732888000 0.366519420994 -0.896459760679 0.032292977452 0.008900844885 0.030202663119 0.013466561390 0.012431977638 -1.014862988927
5.604065999000 0.355780501186 -0.884816420254 0.028672339449 0.007827739706 0.029117332017 0.013250349500 0.017594218532 -0.991279241772
5.605399111000 0.382988981710 -0.905645607874 0.030843541140 0.007917745713 0.029716491635 0.012406460005 0.039467012600 -1.016239292475
5.606732222000 0.387847020549 -0.897192806681 0.032308369664 0.010207139092 0.031179615864 0.012017134660 0.025748866949 -1.016747981845
5.608065333000 0.357196250791 -0.868669088912 0.027684824936 0.008642243370 0.031730840768 0.012449019672 -0.020076841746 -1.006289851744
5.609398444000 0.379126042527 -0.888308756778 0.028463261048 0.009663358106 0.029524798268 0.013000808551 0.057779346739 -1.013542482868
5.610731555000 0.370759336609 -0.907103330495 0.031491659269 0.009244330130 0.030251163692 0.011560890656 0.017232495078 -1.004643026457
5.612064666000 0.378338524682 -0.883675680861 0.030808823755 0.007158827710 0.029905138948 0.012790863528 0.036204688785 -0.998191079325
5.613397777000 0.369907929151 -0.880366914827 0.028463915675 0.007211541869 0.030386503673 0.013997399801 0.034361639291 -1.012220880684
5.614730888000 0.376660532060 -0.889113909512 0.028758656221 0.007028691308 0.031879667404 0.013109259399 0.016187995980 -1.017837469048
5.616063999000 0.365855075941 -0.879777359741 0.029284394915 0.009291327539 0.030317518318 0.012047017619 0.007013103240 -0.993326612149
5.617397111000 0.368949726491 -0.900172213069 0.029170937452 0.009387988136 0.029517877205 0.011745775332 0.048513857008 -1.013366561729
5.618730222000 0.363251021367 -0.895585198297 0.031817146958 0.007807808371 0.032319072231 0.012413049150 0.039466635549 -1.005896982876
5.620063333000 0.384258128005 -0.898984475805 0.030668422786 0.007549282018 0.031663388747 0.012179158476 0.055614153907 -1.025318177101
5.621396444000 0.367700804244 -0.884082763435 0.030014509686 0.007366564923 0.030999694040 0.011685007049 0.036998200329 -1.016803149379
5.622729555000 0.384208860555 -0.885113061046 0.032908180169 0.007679516253 0.029091015082 0.011991590309 0.017423725373 -1.017471906269
5.624062666000 0.357494056882 -0.891767595871 0.030836293014 0.009472109552 0.030885528173 0.011666069603 0.042571407336 -0.988761128636
5.625395777000 0.370580223893 -0.893956627246 0.032946458615 0.005998384563 0.031169904112 0.011446918130 0.016149044742 -1.001260758956
5.626728888000 0.378803607647 -0.877622907375 0.031088592755 0.010033656391 0.031695396230 0.011798288427 0.056407590234 -1.027726729456
5.628061999000 0.385092829191 -0.883869202274 0.030050224033 0.009909067667 0.030908152389 0.011554353846 0.031474671682 -0.995205215370
5.629395111000 0.378756477752 -0.907961770207 0.030404965448 0.008306556141 0.031483296637 0.011160286172 0.036034478644 -0.983225853577
5.630728222000 0.386222916174 -0.894023980454 0.032534666836 0.008924921764 0.030358483664 0.011144899072 0.045472800240 -1.005976427263
5.632061333000 0.360167330894 -0.878167670400 0.032909854917 0.006465698387 0.032411292694 0.010652190229 0.019640843245 -1.032877298415
5.633394444000 0.359813355542 -0.889904052767 0.031825941174 0.006890099233 0.030817476128 0.010539774132 0.016589222014 -1.000344459368
5.634727555000 0.350475009085 -0.900688883494 0.032658116037 0.006231696421 0.031115648338 0.011038706852 0.037193172105 -0.999073972775
5.636060666000 0.346262907376 -0.903210757613 0.032369127545 0.006949604252 0.031580412226 0.010913232181 0.010595612398 -1.015786667090
5.637393777000 0.352209938772 -0.889378107347 0.030629985495 0.007039395203 0.031434816916 0.010989720262 0.033668001081 -1.012213426341
5.638726888000 0.366428211115 -0.878331250133 0.031110317568 0.007811077973 0.030415174200 0.010516040549 0.028425162880 -1.010528957626
5.640059999000 0.343938139958 -0.893946336959 0.030628664096 0.005176157291 0.031247311536 0.011539754731 0.041998081933 -1.019928152503
5.641393111000 0.370670194358 -0.909834233075 0.030566195274 0.008286276226 0.032490289010 0.011657857640 0.017443740914 -0.999987129797
5.642726222000 0.347562559461 -0.911629424115 0.031584349384 0.006003548841 0.032897424903 0.011529967666 0.029293697460 -1.016238362066
5.644059333000 0.346544579630 -0.904778372538 0.030458309144 0.006264359248 0.031785926961 0.011271562912 0.018527970831 -1.031269290197
5.645392444000 0.383090874132 -0.926440450031 0.032628141814 0.008730949496 0.033788655304 0.010256223357 0.012886489418 -1.015402047090
5.646725555000 0.365630095108 -0.911406547788 0.033679598299 0.008093361610 0.032730552107 0.011896039619 0.039271847364 -1.009344011940
5.648058666000 0.341032630466 -0.904035107151 0.033501360908 0.006179925891 0.032292384007 0.011352858398 0.031853786764 -1.020773524817
5.649391777000 0.348321306642 -0.891730412010 0.030579544818 0.005501041045 0.032316916928 0.011421123092 0.029289960180 -1.007445751610
5.650724888000 0.352808798640 -0.908849172903 0.031084547819 0.008176721752 0.032575839854 0.011489420649 0.037127902506 -0.999939430727
5.652057999000 0.378960138656 -0.905109833845 0.030153457826 0.006636522203 0.032465591814 0.011215231676 0.001283288529 -1.003404730602
5.653391111000 0.383988590205 -0.885140801813 0.031368631400 0.007093199311 0.032939344006 0.012645678108 0.050518812709 -1.033419132924
5.654724222000 0.344009143420 -0.886999091910 0.032964430660 0.009515574448 0.032332400489 0.012001268548 0.062732248643 -1.035096734716
5.656057333000 0.394646950370 -0.944239175638 0.033830019422 0.010023570541 0.033907218913 0.010910546073 0.040464809381 -1.015832519187
5.657390444000 0.371886883087 -0.892165689429 0.031681779725 0.008347648082 0.031897318641 0.012285185033 0.037286967980 -0.993092124482
5.658723555000 0.388662970585 -0.911351716856 0.031788110130 0.008586801600 0.032646050322 0.011529099412 0.031671217042 -0.995543228034
5.660056666000 0.340970858229 -0.926814154770 0.032163689187 0.006886913391 0.033966269231 0.012169637831 0.041659749586 -1.030232962918
5.661389777000 0.347635741339 -0.932863118646 0.032602203826 0.008071186337 0.032367877365 0.011629135611 0.033231430129 -0.994283214581
5.662722888000 0.353005562819 -0.895552325433 0.031366314852 0.008586117767 0.032610305623 0.011761106948 0.044701016288 -1.002464460904
5.664055999000 0.367225382376 -0.936510180783 0.032203985019 0.008146556297 0.034342533242 0.011051180399 0.002096592699 -1.022528335452
5.665389111000 0.367230456955 -0.915052786675 0.033184148235 0.007241141498 0.034377090840 0.011694515194 0.033778889302 -1.032274766786
5.666722222000 0.394622200729 -0.948523739083 0.034086055381 0.008897291828 0.033943906077 0.012166330778 0.038569852868 -1.021562961143
5.668055333000 0.352266103795 -0.909807098294 0.032934389214 0.006764564602 0.031502693613 0.011946324622 0.045148660448 -1.003675617058
5.669388444000 0.353143557026 -0.889657992682 0.032410358764 0.006727317400 0.031605762217 0.011564590835 0.027305534433 -1.011684829507
5.670721555000 0.336925961684 -0.892562103654 0.033054116529 0.007217656614 0.031057780042 0.011581261853 0.036378416228 -1.003715287739
5.672054666000 0.373162177275 -0.883554882650 0.032546347016 0.007875783341 0.032530047676 0.012446497854 0.033810288978 -1.014435419517
5.673387777000 0.348959692445 -0.902109976408 0.033436819670 0.008989550916 0.032427351851 0.011160420842 0.037053740578 -1.019779610835
5.674720888000 0.343266821848 -0.897786367997 0.033655555161 0.008022796702 0.032807299273 0.012629190937 0.043989174373 -1.021969938422
5.676053999000 0.345833911610 -0.924588966230 0.035540243810 0.007936100580 0.031605096757 0.011628495845 0.056200314570 -1.010645137000
5.677387111000 0.362913408334 -0.900489451343 0.032314285718 0.009613872894 0.032520785847 0.012083864762 0.045252289195 -1.013030746320
5.678720222000 0.348060394782 -0.922992539078 0.032795096166 0.009021143384 0.032303599615 0.011098855904 0.028298000350 -1.016030914921
5.680053333000 0.355383583786 -0.909607543878 0.031680196740 0.008489721665 0.032896119218 0.012087815694 0.050245005815 -1.014513683266
5.681386444000 0.354337151053 -0.921951979292 0.032572653256 0.007967199199 0.032542789420 0.012009195479 0.039209136533 -1.025411422021
5.682719555000 0.362982840047 -0.901004360219 0.033629338988 0.009241696066 0.032218222819 0.011703787116 0.047065630551 -1.023594406443
5.684052666000 0.362721186243 -0.912907319329 0.033542843206 0.010542990403 0.032030598198 0.012043444997 0.049607791010 -1.017655114305
5.685385777000 0.390039441777 -0.892583848319 0.032454740784 0.008754208710 0.032679850980 0.012157858849 0.045520249558 -1.023120435162
5.686718888000 0.365755938442 -0.903103054021 0.032442850730 0.010119827757 0.032131800265 0.012175580702 0.051246236369 -1.016220407260
5.688051999000 0.350988922573 -0.897741927100 0.032375264684 0.010229967548 0.032916479091 0.011738090708 0.047911628119 -1.021944264858
5.689385111000 0.354964560160 -0.892946343928 0.032329742031 0.009661376368 0.032330002096 0.012548728793 0.053318497758 -1.022114275218
5.690718222000 0.358197980322 -0.910083524874 0.033563921129 0.010547017698 0.031834466041 0.012226086352 0.049442994327 -1.011230739548
5.692051333000 0.342812379303 -0.906700862639 0.033049716441 0.008571924824 0.031555999896 0.011470393190 0.045493003380 -1.020758909910
5.693384444000 0.370343677809 -0.937024685247 0.034638027046 0.011484661751 0.032355338342 0.012016680299 0.050676889903 -1.024392887618
5.694717555000 0.352146087513 -0.903455912611 0.032837222991 0.009519604135 0.031676273899 0.012289454442 0.048002036419 -1.019076250311
5.696050666000 0.346599909686 -0.922463188199 0.034320801849 0.010629626199 0.032369124249 0.012121795396 0.049224604005 -1.028309889681
5.697383777000 0.353256761183 -0.922129569131 0.033674672545 0.010986444069 0.031614474010 0.011924094576 0.054564176448 -1.018976176092
5.698716888000 0.371716036749 -0.921232332710 0.034406157481 0.011054359476 0.032739453812 0.012370917668 0.053219398352 -1.023314540210
5.700049999000 0.373480733384 -0.912452903453 0.033237203996 0.012120104810 0.032358451080 0.012419609941 0.056428754227 -1.023914910213
5.701383111000 0.370064865041 -0.898831228950 0.032467232318 0.011244594027 0.031895858587 0.012805439736 0.056553283846 -1.027499091572
5.702716222000 0.341193464666 -0.917422236548 0.033457178211 0.011047330925 0.031472518497 0.012067354034 0.056388352840 -1.029270300720
5.704049333000 0.353140214872 -0.938628723967 0.034089712528 0.011053923566 0.032047695824 0.012547323277 0.060254368416 -1.024755680010
5.705382444000 0.355985476160 -0.925734662221 0.033224753666 0.012450980483 0.032464462974 0.012086167983 0.058897925166 -1.034612204291
5.706715555000 0.346098580770 -0.914087682487 0.032192242953 0.010683724621 0.031937434085 0.012337506306 0.060620148702 -1.027285283507
5.708048666000 0.337175220037 -0.891243172588 0.032054912963 0.011884879986 0.031303764353 0.012351244519 0.060517036830 -1.032238070225
5.709381777000 0.360158682165 -0.887574724208 0.032353117323 0.012459069129 0.031882740036 0.012832282612 0.059625394472 -1.040564163804
5.710714888000 0.360622521117 -0.931117671588 0.033746923360 0.012173566790 0.032316116559 0.012604573164 0.062176717337 -1.032941272529
5.712047999000 0.354880357661 -0.926351294201 0.032963766353 0.010923228416 0.032054450511 0.012813544759 0.063995831298 -1.032317369491
5.713381111000 0.337424515258 -0.932107101298 0.033201762753 0.011372395692 0.031524188786 0.011770611274 0.064854886657 -1.028082544325
5.714714222000 0.349008313426 -0.908653396407 0.032274575824 0.010675224153 0.031753076623 0.012372698080 0.057294662441 -1.038090138006
5.716047333000 0.361333401348 -0.915991299158 0.033912159789 0.012847913356 0.032603828692 0.013079386910 0.060339453597 -1.038116209192
5.717380444000 0.350764881503 -0.922458004277 0.032870678249 0.011587182684 0.032121794950 0.013117933980 0.069055349081 -1.043022218439
5.718713555000 0.357495297524 -0.923864878467 0.033867382131 0.012154206832 0.032377276061 0.013037896114 0.056611185286 -1.033096740391
5.720046666000 0.364789807059 -0.913981292447 0.031845626899 0.013534878305 0.032115920101 0.012670162752 0.068236649961 -1.022302662737
5.721379777000 0.360497554647 -0.916807947928 0.032755520735 0.011454253515 0.031596020422 0.013030910387 0.072746440304 -1.035723072287
5.722712888000 0.359226820725 -0.916726432811 0.031918543129 0.011933667902 0.032736975571 0.012922145191 0.069622478948 -1.039862440328
5.724045999000 0.328443089708 -0.922805632616 0.032859867631 0.011771196692 0.032244764882 0.011992433628 0.060371338458 -1.037661882051
5.725379111000 0.367229300858 -0.904360619677 0.030923233114 0.012849446289 0.032023710025 0.012867814365 0.074248324577 -1.022713830520
5.726712222000 0.358982634210 -0.927534299562 0.033242927395 0.013000434935 0.032593316422 0.012855037114 0.073795800729 -1.028131083662
5.728045333000 0.364298958814 -0.912758608657 0.032348627052 0.013713123966 0.031994967315 0.013194545039 0.069351744670 -1.031665940877
5.729378444000 0.363223369127 -0.914693710439 0.031568884059 0.013977059367 0.032259512974 0.013235702772 0.065016858414 -1.028209842179
5.730711555000 0.369542141253 -0.909818400559 0.032126523125 0.012798166665 0.033026632311 0.013707798943 0.080098081438 -1.044667002650
5.732044666000 0.357470873702 -0.924961033618 0.032374150274 0.012233546125 0.032920591106 0.013208358017 0.069170672968 -1.033588694705
5.733377777000 0.351715128002 -0.917734199920 0.031343283719 0.012574570180 0.032971884989 0.013508445435 0.066315094474 -1.037435048805
5.734710888000 0.352117233419 -0.922886584880 0.031732736436 0.013794412346 0.032326058306 0.013786248082 0.083510091158 -1.023871512904
5.736043999000 0.351794489041 -0.916646093479 0.032002541821 0.012956826385 0.032635817336 0.013578435283 0.080669606116 -1.040081315259
5.737377111000 0.358342030073 -0.924729541371 0.032326044287 0.012496821638 0.033243461130 0.012758975831 0.074506556382 -1.045225497553
5.738710222000 0.359048874290 -0.921796424974 0.032772309639 0.013951670970 0.032698361787 0.013466059018 0.072254407190 -1.034018369712
5.740043333000 0.358357050483 -0.920295276834 0.032794749128 0.013473834663 0.032869918326 0.013755966167 0.082401511965 -1.029718519916
5.741376444000 0.355167799927 -0.922355470895 0.032256443244 0.013903057341 0.033001870175 0.013289287319 0.075859558171 -1.039253152173
5.742709555000 0.356944893617 -0.921160726971 0.031192823882 0.012611464745 0.033324365171 0.013573646738 0.069935246717 -1.046295622278
5.744042666000 0.358017804056 -0.922329585772 0.031799215489 0.012858632647 0.033218876394 0.013631495715 0.071466046949 -1.039399003684
5.745375777000 0.357890938014 -0.920439791605 0.032119192228 0.013120801828 0.032832366653 0.014643716077 0.097111213290 -1.047454307856
5.746708888000 0.357905796350 -0.923014233049 0.031785108911 0.013150497046 0.033045828844 0.013033053590 0.079761904162 -1.033093042015
5.748041999000 0.358507320459 -0.921852815281 0.031607405806 0.014004927077 0.033753622665 0.014065875847 0.091262743623 -1.055140681079
5.749375111000 0.353766365888 -0.925316034099 0.032660667060 0.013312309590 0.033236612755 0.014046068264 0.081170864357 -1.034157138442
5.750708222000 0.355820762571 -0.922606144503 0.031962382122 0.013111893807 0.033277735822 0.014033771055 0.086578180464 -1.040182310355
5.752041333000 0.353796206674 -0.920747504493 0.031540541028 0.012761411990 0.033444843632 0.013573261612 0.072204662809 -1.044891351022
5.753374444000 0.355504678968 -0.919514164555 0.033360553508 0.013226565495 0.033845139876 0.014003718227 0.076371732933 -1.059518853979
5.754707555000 0.352648412646 -0.923511946512 0.032124538896 0.014008499512 0.033986653786 0.014294416766 0.091442556270 -1.049070692542
5.756040666000 0.352552676711 -0.923072327682 0.032002322643 0.012949750607 0.033584862142 0.013857150287 0.089620668613 -1.036159585925
5.757373777000 0.351253036739 -0.927963231969 0.032054988391 0.012756349054 0.034391471062 0.014763738726 0.083970267017 -1.057886382740
5.758706888000 0.353998813016 -0.924905532175 0.031585173982 0.012869594948 0.034323880435 0.014454949320 0.068986067526 -1.053551148334
5.760039999000 0.349397221570 -0.926184851279 0.031526722778 0.013095673030 0.034410545075 0.013838254670 0.075974015180 -1.063304987360
5.761373111000 0.351933132160 -0.923473644600 0.031308895274 0.013352581227 0.033959824839 0.014592604313 0.076832491019 -1.038827615261
5.762706222000 0.348570787763 -0.918944624871 0.031796304872 0.013192128404 0.034087994164 0.014867470895 0.094332128816 -1.047251410606
5.764039333000 0.347276384294 -0.922384482689 0.031658493770 0.012982606598 0.034192200694 0.015097252973 0.094066322610 -1.045985729501
5.765372444000 0.348236002842 -0.921474768371 0.032980211549 0.013271333098 0.034422290617 0.014651840741 0.081998659948 -1.054193059614
5.766705555000 0.347170129236 -0.918150306482 0.032508853271 0.013916048881 0.034424273274 0.014972162524 0.086901334559 -1.055196205133
5.768038666000 0.349267820352 -0.922921896412 0.032245132622 0.013605725622 0.034748375900 0.014450010898 0.083629576664 -1.051062971341
5.769371777000 0.350669707589 -0.924588439747 0.032084956650 0.012231817466 0.034686160223 0.014867800518 0.096612045515 -1.051415570608
5.770704888000 0.350016227864 -0.915176879690 0.031437776879 0.013093227524 0.034369199394 0.015464480102 0.089082013933 -1.047348733156
5.772037999000 0.352796465913 -0.912832468030 0.032224516413 0.014185407666 0.034361388443 0.015265281686 0.091196741166 -1.040156435323
5.773371111000 0.341889545303 -0.924385484397 0.033127836213 0.013131932853 0.034734570746 0.015049536474 0.094265176203 -1.049317556415
5.774704222000 0.350337325874 -0.914471171174 0.031448273399 0.012447630451 0.034286280565 0.014901276460 0.089984903031 -1.039662681845
5.776037333000 0.352653776968 -0.914028516948 0.032701160194 0.014405850831 0.034840129588 0.015255741938 0.092314382946 -1.053189231403
5.777370444000 0.350072913305 -0.921485487804 0.033497763712 0.014081008851 0.035188800508 0.015498797271 0.101214038937 -1.056705989089
5.778703555000 0.358279969504 -0.925312529326 0.032800781293 0.013527611872 0.034608035186 0.014702165722 0.077911073055 -1.037360955469
5.780036666000 0.358026759609 -0.923918602538 0.032332554148 0.012718796373 0.034950700570 0.015866032936 0.086559365887 -1.050125738002
5.781369777000 0.341369945613 -0.937572531269 0.032948167593 0.013719733251 0.034558958704 0.015163065969 0.088862058170 -1.034292172669
5.782702888000 0.345664204929 -0.911585633388 0.033231020623 0.013750504583 0.035030809498 0.015609249492 0.100141427439 -1.054616953691
5.784035999000 0.340137189964 -0.899549555084 0.031262500780 0.013128372127 0.035333047397 0.015018837827 0.071505222377 -1.054673886411
5.785369111000 0.342539269795 -0.930754338490 0.032522779572 0.013060749639 0.035226605953 0.015886211122 0.081540799507 -1.045975528204
5.786702222000 0.309643876958 -0.917125768734 0.031397164540 0.011567121231 0.034945940070 0.015229788889 0.079157787195 -1.047000301380
5.788035333000 0.322463443695 -0.930048215234 0.032217481022 0.012205706296 0.035225558314 0.015097049338 0.086607230605 -1.051621144351
5.789368444000 0.363000409974 -0.929936213789 0.033171955377 0.014321400847 0.036020835720 0.015889606266 0.084585614639 -1.051367497361
5.790701555000 0.346746034993 -0.915428764811 0.033550738951 0.012465250042 0.035241452722 0.015828813205 0.088742313695 -1.045709838586
5.792034666000 0.339057267208 -0.919391468741 0.033128400629 0.013345792871 0.035329202327 0.015473699127 0.080554164130 -1.050703769699
5.793367777000 0.334901349212 -0.922294545679 0.034283410670 0.013497953259 0.035054406986 0.015510837359 0.081113775653 -1.038083802591
5.794700888000 0.320115660951 -0.910430016721 0.032254428150 0.011626594717 0.034609398794 0.015981057197 0.082401774640 -1.049408921617
5.796033999000 0.324335336822 -0.920385716978 0.033838783642 0.012302145830 0.035331871942 0.015786238431 0.078373183090 -1.051802126627
5.797367111000 0.327759109417 -0.926345303239 0.034130168690 0.013033978871 0.035331904365 0.016398422529 0.082115116735 -1.051456098784
5.798700222000 0.347521652750 -0.927626268027 0.033707709253 0.013115465383 0.035362837795 0.016841819063 0.078499334239 -1.043525649048
5.800033333000 0.338275043837 -0.921557307032 0.033180638512 0.012174123969 0.034826752343 0.016776094591 0.081376758337 -1.047767057020
5.801366444000 0.328453577085 -0.911705608724 0.031742058825 0.013452839745 0.034841178781 0.016314652224 0.079629780248 -1.043203868059
5.802699555000 0.311888933145 -0.920725849617 0.033015555781 0.011732561642 0.035195521581 0.016078147083 0.078006410435 -1.048313560709
5.804032666000 0.334734592925 -0.922304545790 0.032823605437 0.012967965832 0.035621143153 0.016287438099 0.079890272216 -1.049339142091
5.805365777000 0.322602081160 -0.911990204919 0.033183508055 0.011671863430 0.035415448741 0.016791969284 0.079345920606 -1.049015050231
5.806698888000 0.329270094467 -0.904395698456 0.033091015669 0.012791081432 0.035038451692 0.017003498576 0.078333477944 -1.044171111739
5.808031999000 0.320789617822 -0.915133139807 0.032648820609 0.011699532170 0.034888396559 0.016692957879 0.079067329107 -1.042080287443
5.809365111000 0.314410369411 -0.918731890693 0.034060999851 0.013285044580 0.034767705571 0.017017579054 0.076388161329 -1.043478827540
5.810698222000 0.319010986849 -0.898822321001 0.032752813048 0.011055328005 0.034834353887 0.016762135173 0.081392987108 -1.041459068794
5.812031333000 0.339072308033 -0.911737952269 0.034512301229 0.013706518963 0.036041910517 0.018317263411 0.075476700327 -1.046164095603
5.813364444000 0.331769376497 -0.912213582465 0.033322416120 0.013092168817 0.035283385726 0.016635398524 0.077410256750 -1.046255144713
5.814697555000 0.321925518732 -0.907917298619 0.032422576791 0.012917758857 0.034540609897 0.016276592587 0.069049514121 -1.042795305577
5.816030666000 0.313914192303 -0.905169143900 0.033808941743 0.011778757088 0.033845346700 0.016891907916 0.074746560152 -1.042057955079
5.817363777000 0.327763216119 -0.912898881616 0.033484202903 0.012813962559 0.036284844064 0.017101363713 0.071742190185 -1.041685171890
5.818696888000 0.319482952897 -0.918348257348 0.034813834387 0.011478267426 0.034920585625 0.016693223322 0.068242606571 -1.040550961420
5.820029999000 0.318969458630 -0.912371857443 0.034136152949 0.012607165755 0.034571460416 0.017518227752 0.069030227641 -1.041405105508
5.821363111000 0.308028627812 -0.905317830534 0.033778799116 0.013114364071 0.035123533538 0.016470482185 0.067322387872 -1.039316030423
5.822696222000 0.316367031679 -0.921247462854 0.034732096792 0.011929010211 0.035090063199 0.016899378535 0.060373292666 -1.041552776592
5.824029333000 0.318811321815 -0.916450641698 0.034925278817 0.011792489979 0.034382784315 0.017400649843 0.066238850304 -1.032727305511
5.825362444000 0.323905008403 -0.912851536445 0.032892314075 0.013276039162 0.035450716014 0.017608300233 0.071277380487 -1.043017426676
5.826695555000 0.311634407007 -0.913358550946 0.035591998254 0.012366491871 0.034420756328 0.016635473496 0.053546371478 -1.055515170855
5.828028666000 0.298198932080 -0.924178998855 0.035812717156 0.011853293249 0.035732020769 0.016127604495 0.064662889819 -1.035683669623
5.829361777000 0.314737594001 -0.910456832794 0.035076009221 0.011018748388 0.034962867603 0.017110031185 0.063442834969 -1.030724221713
5.830694888000 0.308265369157 -0.915971106513 0.034209416167 0.011837670222 0.034980129166 0.018262440416 0.072625050142 -1.036402402471
5.832027999000 0.308237255599 -0.896911841284 0.034115196262 0.012795098233 0.034281948397 0.017501532050 0.055634066642 -1.035714523377
5.833361111000 0.309973242027 -0.902979089348 0.033212852723 0.012162010821 0.034346865845 0.017090970127 0.059976358921 -1.038083991261
5.834694222000 0.310937786194 -0.906068126638 0.033695648830 0.011577137657 0.034824323589 0.018087037868 0.056602345754 -1.039895921145
5.836027333000 0.311903423692 -0.911950873467 0.033054675314 0.012761729898 0.034165153194 0.019061498347 0.061108517565 -1.038246056119
5.837360444000 0.304850347804 -0.909096098581 0.033160657483 0.009960801080 0.034335204160 0.016740775139 0.048561683886 -1.032204256944
5.838693555000 0.297355792380 -0.913470448156 0.035298965679 0.011854267250 0.034531108830 0.017172879719 0.053893611708 -1.027785992356
5.840026666000 0.304626926607 -0.913971112751 0.034836214628 0.013172881617 0.034460650155 0.017560861668 0.045466237438 -1.041237127814
5.841359777000 0.297306794453 -0.904041352692 0.034732313550 0.012320604104 0.034315893835 0.018809458430 0.060356949266 -1.033027314688
5.842692888000 0.296586629794 -0.908921936237 0.033660385606 0.011475918348 0.034564671010 0.017753174497 0.054055307972 -1.044117934074
5.844025999000 0.300347797354 -0.907235128683 0.033473392409 0.013322454249 0.034408099722 0.018548151126 0.049014677855 -1.020566259282
5.845359111000 0.294214883416 -0.903314713470 0.033771639560 0.011047277140 0.033932312711 0.018054555850 0.052029762425 -1.027754128049
5.846692222000 0.293404520308 -0.903933579172 0.034085179393 0.012852623876 0.033004189051 0.018866248014 0.042934682658 -1.027322499092
5.848025333000 0.289216933023 -0.901770122043 0.034992697890 0.012370204158 0.032613667027 0.017928901584 0.052294302454 -1.022581852074
5.849358444000 0.313617312262 -0.908146750248 0.035842008459 0.012932528322 0.034408542041 0.018559651950 0.063458540737 -1.025437963007
5.850691555000 0.298892941330 -0.909129040743 0.033007557419 0.011784702893 0.032824249533 0.017401878694 0.036106286932 -0.992312472490
5.852024666000 0.284751134576 -0.901919370069 0.032457546991 0.013420552002 0.033431579020 0.018314507369 0.034890645182 -1.019050202297
5.853357777000 0.297049990884 -0.907858218820 0.037184082820 0.011809083698 0.033163237543 0.019994223585 0.076597775074 -1.017443369368
5.854690888000 0.283431466791 -0.915081014690 0.033227429572 0.012252296895 0.034423871886 0.018599471528 0.034638961073 -1.039728862561
5.856023999000 0.299956269535 -0.901630916003 0.033081973542 0.014294862674 0.033974433656 0.018329531860 0.037034087602 -1.046142089157
5.857357111000 0.288299310944 -0.901598689352 0.033800721495 0.014222193748 0.034403766438 0.018739206784 0.011551375459 -1.019925587763
5.858690222000 0.286177236465 -0.912616305417 0.033818462741 0.013479692738 0.034589845103 0.019136413232 0.025795363138 -1.045115339627
5.860023333000 0.287634404840 -0.903160489301 0.036168301467 0.012381013090 0.034405656001 0.019621921435 0.097216302658 -1.026885484443
5.861356444000 0.287578126074 -0.905093557179 0.034649629061 0.011798690527 0.033751573816 0.018988154661 0.030976337086 -1.027896412628
5.862689555000 0.293975196099 -0.898429762871 0.035037805676 0.012621957892 0.033870181146 0.019555896381 0.037262522061 -1.014585078129
5.864022666000 0.288179089907 -0.903861406822 0.033652054502 0.010425703079 0.033989920458 0.019683649634 0.015400462724 -1.040593968773
5.865355777000 0.283262563821 -0.901185428894 0.033485101192 0.012847358353 0.033028775215 0.017911728768 0.016426733806 -1.046419135015
5.866688888000 0.284220712374 -0.908867258408 0.035522275507 0.013402089019 0.033760107968 0.018341958583 0.023752621796 -1.028141613762
5.868021999000 0.284812289519 -0.898996370026 0.035071190269 0.010935430078 0.033598966269 0.020670150920 0.047879177370 -1.023187495336
5.869355111000 0.284459162985 -0.903291579617 0.035576383438 0.013923719001 0.033572553888 0.019698321644 0.034327240214 -1.031965722263
5.870688222000 0.286279056993 -0.903004037641 0.032404915214 0.012540244057 0.032025265209 0.018863690574 0.021142657105 -1.035282998575
5.872021333000 0.274849134612 -0.900832362852 0.035487163338 0.012316201147 0.031857804011 0.018745486480 0.027297220582 -1.026301810996
5.873354444000 0.280593878347 -0.906903918247 0.033566614635 0.013604307908 0.031815614605 0.019835082900 0.039239462984 -1.007704453628
5.874687555000 0.279516303892 -0.892980975642 0.032093246079 0.015160097295 0.032200913046 0.019573948721 0.058048611330 -1.029594958131
5.876020666000 0.275209082043 -0.900668440793 0.034045169649 0.011304346950 0.029990640136 0.018548185244 0.030408543700 -0.997046571954
5.877353777000 0.284337010565 -0.911993702248 0.035301390681 0.012425003916 0.031568763207 0.018910543996 0.041609229607 -1.006893169573
5.878686888000 0.286819660457 -0.900166686898 0.031999661724 0.014164760611 0.033096714940 0.019410336243 0.014432929618 -1.033161957366
5.880019999000 0.278108084732 -0.912284846784 0.034507639651 0.015041664899 0.032027523169 0.019332474808 0.015056455219 -1.021872880014
5.881353111000 0.271325363214 -0.902681919944 0.036048669136 0.011734961072 0.031761452453 0.019767928811 0.014721250306 -1.048064057938
5.882686222000 0.269008249593 -0.893475585399 0.032882530146 0.011275141592 0.031895301774 0.018503711144 0.009801021907 -1.035809958720
5.884019333000 0.282682342397 -0.901838424603 0.031730651444 0.013723395790 0.032108047751 0.018196506676 0.019259353148 -1.014208721265
5.885352444000 0.275282194341 -0.899584406659 0.034753615287 0.012529999803 0.030828842345 0.020654900446 0.021534477617 -1.009533610393
5.886685555000 0.280975105404 -0.899002208121 0.031668530388 0.014034789960 0.031710430113 0.019883704096 0.012886079163 -1.026561320677
5.888018666000 0.282312540014 -0.897897506062 0.033391803572 0.015898042812 0.030581892064 0.018738134601 0.013357257697 -1.004505423959
5.889351777000 0.275751319704 -0.900049447004 0.033785192011 0.015093437334 0.030331916716 0.019817566215 0.022422817372 -1.015041873027
5.890684888000 0.270705653957 -0.898278817547 0.033994562950 0.011465171661 0.030451841105 0.019172208095 0.027788295063 -1.016880002493
5.892017999000 0.268625429730 -0.898140794123 0.034594304220 0.013500800044 0.030552436615 0.019220016165 0.017985266958 -1.019145596087
5.893351111000 0.275005452153 -0.892817886561 0.034751668806 0.012343428975 0.032642434884 0.018826761800 0.010983918855 -1.025593988937
5.894684222000 0.263944901673 -0.899654779141 0.032749422279 0.011234990239 0.031846079768 0.019930278358 0.022177394037 -1.031541675586
5.896017333000 0.275203059042 -0.890230323218 0.031132978789 0.011820936505 0.029577320562 0.019369041515 0.010991400114 -1.023514953711
5.897350444000 0.260405523566 -0.893111015109 0.031850818894 0.013466068892 0.029564382274 0.018676271626 0.011499015891 -1.012006315789
5.898683555000 0.273207338536 -0.902625252791 0.035556505150 0.013087621255 0.030745313763 0.020016536418 0.020566030278 -1.030774039482
5.900016666000 0.270558950920 -0.896351417344 0.035235833241 0.012951631785 0.030184676638 0.019285444367 0.019638937016 -1.032203148138
5.901349777000 0.267766867788 -0.912556415958 0.032263121093 0.013650756554 0.029947335766 0.019158287417 0.026262710670 -1.011508458185
5.902682888000 0.263494315445 -0.897482733849 0.034634676710 0.012426967359 0.027741571164 0.018635141655 0.003259260142 -1.018736837944
5.904015999000 0.262016355648 -0.903044253369 0.032752717971 0.011308486052 0.027471335227 0.018496900847 0.025312188577 -1.009363429331
5.905349111000 0.263138918451 -0.887268667273 0.030194857689 0.012438915818 0.028014328407 0.018820044241 0.004431204081 -1.005735473096
5.906682222000 0.258854889457 -0.900678525733 0.032303887786 0.011154266841 0.029525361717 0.019183158537 -0.002944313846 -1.015516671336
5.908015333000 0.269784795949 -0.900023618848 0.035316072914 0.013580061124 0.030272505702 0.019063339451 0.020443024093 -1.043397726750
5.909348444000 0.250612432641 -0.903997057186 0.033577795292 0.009750513253 0.026787845117 0.018866994097 0.015701756981 -1.001970426693
5.910681555000 0.263547959511 -0.912432910320 0.036308889950 0.012957818114 0.029131040547 0.020180915513 0.001643698717 -1.038607289005
5.912014666000 0.275253324945 -0.906546742669 0.033006728138 0.013868890855 0.028764832542 0.019551120556 0.019430859174 -1.018914988116
5.913347777000 0.267468995968 -0.900554212652 0.032544796453 0.014995780999 0.027299425240 0.019751409122 0.015032697375 -1.007757261349
5.914680888000 0.262764162398 -0.899138354308 0.032594326890 0.013354200182 0.027836188838 0.017438681529 -0.001635082167 -0.994369921316
5.916013999000 0.285439004947 -0.902826356295 0.031561874493 0.010928293022 0.027525120857 0.018023729544 -0.008483351891 -1.023372873322
5.917347111000 0.255762992037 -0.901458348308 0.032954058067 0.011165896565 0.027438116316 0.018570583054 0.010421488661 -1.007274142201
5.918680222000 0.253734405464 -0.897990479203 0.034245370242 0.012400378577 0.027548782479 0.018689340044 0.010218416218 -1.025592043877
5.920013333000 0.276844809885 -0.860509194595 0.031090298152 0.014168731500 0.027331619689 0.017376878483 0.002041746052 -1.027139555438
5.921346444000 0.265559217299 -0.923397136808 0.036570188892 0.010870835899 0.028309902084 0.016768540886 0.002954551554 -1.025691511892
5.922679555000 0.253009931635 -0.909217337721 0.034241255368 0.013739375153 0.027202227036 0.017461103075 0.015255510290 -1.017600991760
5.924012666000 0.312439617836 -0.916379847356 0.035067652051 0.014987817282 0.029247593612 0.019925845612 0.020364499311 -1.028616130372
5.925345777000 0.271224283704 -0.910002092948 0.032459659122 0.013052761188 0.028293979402 0.017067594878 -0.009573922117 -1.026195427958
5.926678888000 0.295571466820 -0.923130200716 0.033076004201 0.012312827207 0.028566377537 0.017656769542 0.001727041544 -1.015614491678
5.928011999000 0.250401528495 -0.908055506909 0.034911961083 0.012348641942 0.026386119744 0.016634042312 0.001161045156 -1.010940751748
5.929345111000 0.293678771647 -0.893883186687 0.032304733644 0.011307751724 0.026779042636 0.017315700277 0.007910851946 -1.023275770720
5.930678222000 0.267296789567 -0.952177219312 0.036372792507 0.011776959793 0.027655327085 0.015983383360 0.001159940871 -1.018594899681
5.932011333000 0.270858721359 -0.884136204193 0.034136285069 0.012411618466 0.027352804532 0.017819228743 0.004311007855 -1.019854739567
5.933344444000 0.257732272045 -0.912018913761 0.032600669626 0.012940451812 0.027631527879 0.017171881879 0.007369009759 -1.020413830400
5.934677555000 0.256843501275 -0.892022026330 0.031910863222 0.014592074444 0.026007687955 0.017168870237 -0.005531429254 -1.024660889550
5.936010666000 0.270526316981 -0.901124192317 0.033082660810 0.011067937859 0.026583121296 0.017765258093 0.005276896972 -1.017120201919
5.937343777000 0.264406567071 -0.924206887385 0.034280947322 0.010303302369 0.027341309555 0.016800070445 0.000082487987 -1.024784133081
5.938676888000 0.240049355432 -0.886966741376 0.031973667770 0.010085630611 0.026580257803 0.017426486879 -0.005819092400 -1.025061164976
5.940009999000 0.285174459843 -0.917178338496 0.035879378379 0.014771072633 0.029870282239 0.015436077411 0.017802844814 -1.007131127336
5.941343111000 0.259434881351 -0.895730467479 0.031930060694 0.011701279137 0.027095539696 0.015996309868 -0.004067950386 -1.025090190655
5.942676222000 0.256954015297 -0.897424926304 0.034024096758 0.012449219401 0.026269903353 0.016428746438 0.009675599505 -1.023340183018
5.944009333000 0.300450605057 -0.903794923115 0.031266347545 0.013775662667 0.028201369698 0.016625802910 -0.000203919346 -1.026008303726
5.945342444000 0.317019176888 -0.930889242105 0.034502121635 0.012900189388 0.028280195248 0.017450501884 0.011066364038 -1.015348487412
5.946675555000 0.290436064475 -0.922725236153 0.036047065739 0.012767588446 0.027736694309 0.016405996716 0.001138707870 -1.020829701317
5.948008666000 0.276747774009 -0.899201170637 0.036359595437 0.015032576128 0.026772395907 0.016099605658 -0.003095767047 -1.035257154495
5.949341777000 0.255543487965 -0.911419936943 0.033379176756 0.012718504076 0.027421611191 0.015137379122 0.002799873619 -1.027901917470
5.950674888000 0.289150677297 -0.927085364624 0.031926546667 0.012040954635 0.028119077992 0.016211092799 -0.000609172265 -1.023909431606
5.952007999000 0.278498612512 -0.911573770263 0.033296866676 0.013499375309 0.028137418556 0.014538136615 0.004373201175 -1.022305391375
5.953341111000 0.281851788082 -0.893692186641 0.033501618947 0.013459348030 0.027770114529 0.015764403731 -0.001962705448 -1.034268917980
5.954674222000 0.273491965842 -0.910113007282 0.034712022397 0.013517118650 0.026784359428 0.015306879327 -0.004467843960 -1.026218189432
5.956007333000 0.279103913367 -0.915988143943 0.034916010153 0.010721211617 0.027855550946 0.016205653885 0.010938958810 -1.025075200554
5.957340444000 0.291261987426 -0.896361579644 0.033928278353 0.014033512817 0.028055373261 0.016107440494 0.004687851915 -1.018452707998
5.958673555000 0.277215235909 -0.929078042438 0.034401533975 0.011658638944 0.028306483131 0.016161028323 0.014520309336 -1.036961021814
5.960006666000 0.293852584006 -0.920443032272 0.035061397538 0.014618782593 0.027853376910 0.014741787380 0.007554847208 -1.027151844700
5.961339777000 0.255970935945 -0.939210704346 0.034057343110 0.011321543192 0.028768172259 0.015201342037 0.011452902800 -1.023295018591
5.962672888000 0.277141607567 -0.895903993249 0.034845161665 0.011909605351 0.028091587459 0.015233006596 -0.009918652982 -1.013044312921
5.964005999000 0.295203161944 -0.891599247508 0.035287557168 0.012028310776 0.027451404330 0.017336755589 0.022446980896 -1.023050650571
5.965339111000 0.288453470379 -0.915720687532 0.033236154925 0.013735017957 0.028817647761 0.015032795983 0.003249694728 -1.033095043258
5.966672222000 0.301319136895 -0.922199758339 0.035246277867 0.011507668167 0.028185265082 0.015832411746 0.006222003870 -1.022727364307
5.968005333000 0.272941971965 -0.873144903817 0.033773723412 0.011396895993 0.028620920285 0.017047324890 0.019987301307 -1.036489047041
5.969338444000 0.270448790505 -0.923671241032 0.033482812926 0.012154425210 0.029175488313 0.015464431581 0.008952485317 -1.035224614120
5.970671555000 0.284603362135 -0.943792438008 0.034674202711 0.012420773157 0.029168121190 0.014911644172 0.011581317827 -1.032667742712
5.972004666000 0.299155268802 -0.918715182520 0.033938416228 0.015150131169 0.029409870333 0.014745079219 0.007402645687 -1.045660612287
5.973337777000 0.290154649926 -0.910428975204 0.034449162826 0.011105091925 0.030219252161 0.015132061768 0.013497772646 -1.042328018155
5.974670888000 0.271353169824 -0.909333198040 0.033662773424 0.012168116402 0.029544119604 0.015588484743 0.012233271122 -1.039785740776
5.976003999000 0.283542438413 -0.925476260232 0.035432563120 0.013970714263 0.028281165843 0.015002422474 0.011242485422 -1.031393707027
5.977337111000 0.276077289360 -0.908773159422 0.033098936092 0.012772144335 0.029209216710 0.015381928391 0.019324647480 -1.034165062580
5.978670222000 0.299436823469 -0.908834503524 0.035242653445 0.012629470332 0.028620834694 0.015443123121 0.015769757119 -1.016563068920
5.980003333000 0.271801440632 -0.931118047757 0.035421025442 0.011215758945 0.029484724497 0.015608156439 -0.003076692043 -1.041297414162
5.981336444000 0.303452994154 -0.908916906158 0.036112526599 0.013828390690 0.029322747141 0.016704611882 0.034201669675 -1.055665928058
5.982669555000 0.260991519052 -0.892168005563 0.034923046179 0.009918213146 0.027918724068 0.015776729063 0.007474923206 -1.041154595714
5.984002666000 0.274768894807 -0.893630917410 0.035016833537 0.012217765720 0.028128840629 0.016361303627 0.017092222151 -1.039328542874
5.985335777000 0.290734012127 -0.891371384343 0.034960865652 0.013060383778 0.028776214647 0.015541441622 0.015655117881 -1.014280746309
5.986668888000 0.299938162326 -0.914180213183 0.034895770245 0.013870295268 0.028290056607 0.015228765785 0.044792958417 -1.041478936412
5.988001999000 0.278116903774 -0.924260729095 0.036035769614 0.013031352649 0.028876265345 0.015963755524 0.025553013772 -1.036713471793
5.989335111000 0.290307277815 -0.937562548233 0.034773124824 0.014580462122 0.028363051478 0.014861606065 0.029218520508 -1.025022991614
5.990668222000 0.314657793367 -0.926163942151 0.036683600944 0.011878714645 0.031020046315 0.015145165826 0.014152007729 -1.055359758402
5.992001333000 0.298694416054 -0.911155093381 0.036089684179 0.010907776920 0.029975716642 0.015613995185 0.031481319130 -1.048491927042
5.993334444000 0.290272862641 -0.937533796813 0.034351766754 0.012693834448 0.029896896328 0.013886520610 0.006645960955 -1.025408653601
5.994667555000 0.289041084527 -0.917469186447 0.035888649237 0.014208134417 0.029462646816 0.014271892967 0.005254408155 -1.019603680757
5.996000666000 0.299186196342 -0.925993829140 0.036739514433 0.011813221876 0.029737493729 0.014829437282 0.009164491410 -1.064509779419
5.997333777000 0.296807993631 -0.930094257762 0.037379456354 0.013451493795 0.030060686102 0.015645923643 0.048463065497 -1.043561209631
5.998666888000 0.303265795195 -0.940045104954 0.037781746149 0.013198243967 0.029640124138 0.015061051865 0.043237043107 -1.032645229064
6.000000000000 0.281901767424 -0.911183534020 0.033582617048 0.012391547578 0.029179828955 0.013820111273 -0.005236525886 -1.034137372895
