!Murata Part Number: LQW15AN47NJ00
!These Parameters are Measured in Series Mode Connection
!       o--[Z]--o
!Port1              Port2
!       o-------o
!
!Freq. Start=50[MHz] Stop=20[GHz], 401[Steps]
# Hz S RI R 50
!Freq.(Hz) S11(Real) S11(Imag) S21(Real) S21(Imag) S12(Real) S12(Imag) S22(Real) S22(Imag)
5.0E7 0.031011577106765695 0.1396924528825319 0.9689884228932343 -0.1396924528825319 0.9689884228932343 -0.1396924528825319 0.031011577106765695 0.1396924528825319
5.0754570186123446E7 0.03166270209191928 0.14166162348582811 0.9683372979080805 -0.14166162348582811 0.9683372979080805 -0.14166162348582811 0.03166270209191928 0.14166162348582811
5.152052789556263E7 0.03233142600456292 0.14365525826922151 0.9676685739954372 -0.1436552582692215 0.9676685739954372 -0.1436552582692215 0.03233142600456292 0.14365525826922151
5.229804498202928E7 0.03301818436026994 0.1456735362536869 0.9669818156397298 -0.1456735362536869 0.9669818156397298 -0.1456735362536869 0.03301818436026994 0.1456735362536869
5.308729589274893E7 0.03372342194761212 0.1477166331581312 0.966276578052388 -0.14771663315813116 0.966276578052388 -0.14771663315813116 0.03372342194761212 0.1477166331581312
5.388845770760058E7 0.03444759298879839 0.14978472117692132 0.9655524070112014 -0.1497847211769213 0.9655524070112014 -0.1497847211769213 0.03444759298879839 0.14978472117692132
5.470171017884717E7 0.035191161302319154 0.1518779687479489 0.9648088386976807 -0.1518779687479489 0.9648088386976807 -0.1518779687479489 0.035191161302319154 0.1518779687479489
5.5527235771465644E7 0.03595460046748998 0.15399654031072957 0.96404539953251 -0.15399654031072957 0.96404539953251 -0.15399654031072957 0.03595460046748998 0.15399654031072957
5.6365219704085544E7 0.03673839399076132 0.15614059605401548 0.9632616060092388 -0.15614059605401548 0.9632616060092388 -0.15614059605401548 0.03673839399076132 0.15614059605401548
5.721584999054556E7 0.03754303547363 0.1583102916523715 0.96245696452637 -0.15831029165237154 0.96245696452637 -0.15831029165237154 0.03754303547363 0.1583102916523715
5.807931748207712E7 0.03836902878195416 0.1605057779911437 0.9616309712180457 -0.1605057779911437 0.9616309712180457 -0.1605057779911437 0.03836902878195416 0.1605057779911437
5.8955815910124585E7 0.03921688821643786 0.16272720087922665 0.9607831117835622 -0.16272720087922665 0.9607831117835622 -0.16272720087922665 0.03921688821643786 0.16272720087922665
5.984554192981184E7 0.04008713868401038 0.16497470074901388 0.9599128613159896 -0.16497470074901388 0.9599128613159896 -0.16497470074901388 0.04008713868401038 0.16497470074901388
6.074869516406457E7 0.040980315869781896 0.1672484123428951 0.9590196841302181 -0.1672484123428951 0.9590196841302181 -0.1672484123428951 0.040980315869781896 0.1672484123428951
6.166547824839868E7 0.04189696640921175 0.16954846438564633 0.9581030335907884 -0.16954846438564633 0.9581030335907884 -0.16954846438564633 0.04189696640921175 0.16954846438564633
6.2596096876384385E7 0.04283764806007347 0.17187497924204162 0.9571623519399266 -0.17187497924204165 0.9571623519399266 -0.17187497924204165 0.04283764806007347 0.17187497924204162
6.354075984579668E7 0.043802929873749286 0.17422807255900175 0.9561970701262509 -0.17422807255900175 0.9561970701262509 -0.17422807255900175 0.043802929873749286 0.17422807255900175
6.449967910546205E7 0.04479339236532792 0.17660785289158148 0.955206607634672 -0.17660785289158148 0.955206607634672 -0.17660785289158148 0.04479339236532792 0.17660785289158148
6.547306980281226E7 0.04580962768192084 0.17901442131209158 0.954190372318079 -0.17901442131209155 0.954190372318079 -0.17901442131209155 0.04580962768192084 0.17901442131209158
6.646115033215589E7 0.04685223976854756 0.18144787100164267 0.9531477602314525 -0.18144787100164267 0.9531477602314525 -0.18144787100164267 0.04685223976854756 0.18144787100164267
6.746414238367817E7 0.047921844530874294 0.1839082868233985 0.9520781554691256 -0.18390828682339852 0.9520781554691256 -0.18390828682339852 0.047921844530874294 0.1839082868233985
6.848227099318038E7 0.049019069994020385 0.18639574487682858 0.9509809300059796 -0.1863957448768286 0.9509809300059796 -0.1863957448768286 0.049019069994020385 0.18639574487682858
6.951576459256999E7 0.05014455645657478 0.18891031203225536 0.9498554435434252 -0.18891031203225533 0.9498554435434252 -0.18891031203225533 0.05014455645657478 0.18891031203225536
7.056485506111258E7 0.05129895663888871 0.19145204544500385 0.9487010433611114 -0.19145204544500385 0.9487010433611114 -0.19145204544500385 0.05129895663888871 0.19145204544500385
7.162977777745734E7 0.052482935824633675 0.19402099204847684 0.9475170641753664 -0.19402099204847684 0.9475170641753664 -0.19402099204847684 0.052482935824633675 0.19402099204847684
7.271077167244768E7 0.05369717199453393 0.19661718802550285 0.9463028280054662 -0.19661718802550285 0.9463028280054662 -0.19661718802550285 0.05369717199453393 0.19661718802550285
7.380807928272885E7 0.054942355951100925 0.19924065825732945 0.945057644048899 -0.19924065825732948 0.945057644048899 -0.19924065825732948 0.054942355951100925 0.19924065825732945
7.492194680516452E7 0.0562191914331135 0.20189141574967046 0.9437808085668865 -0.20189141574967046 0.9437808085668865 -0.20189141574967046 0.0562191914331135 0.20189141574967046
7.60526241520746E7 0.057528395218504065 0.2045694610352543 0.9424716047814959 -0.2045694610352543 0.9424716047814959 -0.2045694610352543 0.057528395218504065 0.2045694610352543
7.720036500730675E7 0.058870697214224554 0.2072747815523688 0.9411293027857756 -0.20727478155236875 0.9411293027857756 -0.20727478155236875 0.058870697214224554 0.2072747815523688
7.836542688315398E7 0.06024684053158277 0.21000735099895307 0.9397531594684172 -0.21000735099895307 0.9397531594684172 -0.21000735099895307 0.06024684053158277 0.21000735099895307
7.954807117813127E7 0.06165758154545072 0.21276712866184397 0.9383424184545495 -0.21276712866184402 0.9383424184545495 -0.21276712866184402 0.06165758154545072 0.21276712866184397
8.074856323562416E7 0.0631036899356658 0.2155540587208597 0.9368963100643343 -0.21555405872085973 0.9368963100643343 -0.21555405872085973 0.0631036899356658 0.2155540587208597
8.196717240342227E7 0.06458594870885916 0.2183680695274737 0.9354140512911409 -0.2183680695274737 0.9354140512911409 -0.2183680695274737 0.06458594870885916 0.2183680695274737
8.320417209415154E7 0.06610515419886517 0.22120907285792127 0.933894845801135 -0.22120907285792127 0.933894845801135 -0.22120907285792127 0.06610515419886517 0.22120907285792127
8.445983984661816E7 0.06766211604378469 0.22407696314066736 0.9323378839562153 -0.22407696314066736 0.9323378839562153 -0.22407696314066736 0.06766211604378469 0.22407696314066736
8.573445738807854E7 0.06925765713770017 0.22697161665827245 0.9307423428622998 -0.22697161665827245 0.9307423428622998 -0.22697161665827245 0.06925765713770017 0.22697161665827245
8.702831069744885E7 0.07089261355496379 0.22989289072379182 0.9291073864450361 -0.22989289072379182 0.9291073864450361 -0.22989289072379182 0.07089261355496379 0.22989289072379182
8.834169006946853E7 0.07256783444491426 0.23284062283196938 0.9274321655550858 -0.2328406228319694 0.9274321655550858 -0.2328406228319694 0.07256783444491426 0.23284062283196938
8.96748901798321E7 0.07428418189480826 0.23581462978560358 0.9257158181051918 -0.23581462978560355 0.9257158181051918 -0.23581462978560355 0.07428418189480826 0.23581462978560358
9.1028210151304E7 0.07604253075869775 0.2388147067976013 0.9239574692413023 -0.2388147067976013 0.9239574692413023 -0.2388147067976013 0.07604253075869775 0.2388147067976013
9.240195362083109E7 0.07784376844992534 0.24184062656937125 0.9221562315500748 -0.24184062656937128 0.9221562315500748 -0.24184062656937128 0.07784376844992534 0.24184062656937125
9.379642880766791E7 0.07968879469486768 0.24489213834636006 0.9203112053051322 -0.2448921383463601 0.9203112053051322 -0.2448921383463601 0.07968879469486768 0.24489213834636006
9.521194858253023E7 0.08157852124551229 0.24796896695168708 0.9184214787544877 -0.24796896695168705 0.9184214787544877 -0.24796896695168705 0.08157852124551229 0.24796896695168708
9.664883053779216E7 0.08351387154842459 0.2510708117989991 0.9164861284515753 -0.2510708117989991 0.9164861284515753 -0.2510708117989991 0.08351387154842459 0.2510708117989991
9.810739705874248E7 0.08549578036763521 0.25419734588583437 0.9145042196323646 -0.25419734588583437 0.9145042196323646 -0.25419734588583437 0.08549578036763521 0.25419734588583437
9.958797539591652E7 0.08752519335896453 0.25734821476896297 0.9124748066410354 -0.25734821476896297 0.9124748066410354 -0.25734821476896297 0.08752519335896453 0.25734821476896297
1.0109089773851961E8 0.08960306659329785 0.26052303552335504 0.9103969334067021 -0.26052303552335504 0.9103969334067021 -0.26052303552335504 0.08960306659329785 0.26052303552335504
1.0261650128895843E8 0.09173036602632702 0.26372139568661557 0.908269633973673 -0.26372139568661557 0.908269633973673 -0.26372139568661557 0.09173036602632702 0.26372139568661557
1.0416512833849736E8 0.09390806691229478 0.26694285219092173 0.9060919330877052 -0.26694285219092173 0.9060919330877052 -0.26694285219092173 0.09390806691229478 0.26694285219092173
1.0573712634405641E8 0.09613715315930497 0.2701869302846972 0.9038628468406952 -0.27018693028469726 0.9038628468406952 -0.27018693028469726 0.09613715315930497 0.2701869302846972
1.0733284800616828E8 0.09841861662380295 0.2734531224464643 0.901581383376197 -0.2734531224464643 0.901581383376197 -0.2734531224464643 0.09841861662380295 0.2734531224464643
1.0895265134811176E8 0.10075345634188664 0.2767408872935235 0.8992465436581135 -0.2767408872935235 0.8992465436581135 -0.2767408872935235 0.10075345634188664 0.2767408872935235
1.1059689979623953E8 0.10314267769517386 0.2800496484883205 0.8968573223048262 -0.28004964848832054 0.8968573223048262 -0.28004964848832054 0.10314267769517386 0.2800496484883205
1.1226596226151802E8 0.10558729150903766 0.28337879364558033 0.8944127084909624 -0.28337879364558033 0.8944127084909624 -0.28337879364558033 0.10558729150903766 0.28337879364558033
1.1396021322229806E8 0.10808831308111701 0.2867276732435013 0.8919116869188829 -0.2867276732435013 0.8919116869188829 -0.2867276732435013 0.10808831308111701 0.2867276732435013
1.1568003280833441E8 0.11064676113812266 0.29009559954252245 0.8893532388618773 -0.29009559954252245 0.8893532388618773 -0.29009559954252245 0.11064676113812266 0.29009559954252245
1.1742580688607343E8 0.11326365671909008 0.2934818455153963 0.8867363432809099 -0.2934818455153963 0.8867363432809099 -0.2934818455153963 0.11326365671909008 0.2934818455153963
1.1919792714522783E8 0.11594002198337627 0.2968856437925191 0.8840599780166237 -0.2968856437925191 0.8840599780166237 -0.2968856437925191 0.11594002198337627 0.2968856437925191
1.2099679118665792E8 0.11867687894186092 0.30030618562668476 0.881323121058139 -0.30030618562668476 0.881323121058139 -0.30030618562668476 0.11867687894186092 0.30030618562668476
1.2282280261157903E8 0.12147524810999488 0.3037426198816472 0.8785247518900051 -0.3037426198816472 0.8785247518900051 -0.3037426198816472 0.12147524810999488 0.3037426198816472
1.2467637111211549E8 0.12433614708153891 0.30719405204908257 0.8756638529184612 -0.30719405204908257 0.8756638529184612 -0.30719405204908257 0.12433614708153891 0.30719405204908257
1.265579125632208E8 0.1272605890220549 0.310659543298753 0.8727394109779452 -0.310659543298753 0.8727394109779452 -0.310659543298753 0.1272605890220549 0.310659543298753
1.284678491159853E8 0.1302495810814492 0.3141381095668701 0.8697504189185509 -0.3141381095668701 0.8697504189185509 -0.3141381095668701 0.1302495810814492 0.3141381095668701
1.3040660929235186E8 0.13330412272512854 0.3176287206878509 0.8666958772748715 -0.3176287206878509 0.8666958772748715 -0.3176287206878509 0.13330412272512854 0.3176287206878509
1.3237462808126101E8 0.1364252039836022 0.32113029957484085 0.8635747960163976 -0.32113029957484085 0.8635747960163976 -0.32113029957484085 0.1364252039836022 0.32113029957484085
1.3437234703624701E8 0.13961380362066858 0.32464172145455195 0.8603861963793313 -0.3246417214545519 0.8603861963793313 -0.3246417214545519 0.13961380362066858 0.32464172145455195
1.364002143745067E8 0.1428708872206364 0.3281618131621234 0.8571291127793638 -0.3281618131621234 0.8571291127793638 -0.3281618131621234 0.1428708872206364 0.3281618131621234
1.3845868507746372E8 0.14619740519537444 0.33168935250186077 0.8538025948046254 -0.3316893525018607 0.8538025948046254 -0.3316893525018607 0.14619740519537444 0.33168935250186077
1.405482209928499E8 0.1495942907123398 0.3352230676798366 0.8504057092876602 -0.3352230676798366 0.8504057092876602 -0.3352230676798366 0.1495942907123398 0.3352230676798366
1.426692909383278E8 0.15306245754511413 0.3387616368144511 0.846937542454886 -0.33876163681445104 0.846937542454886 -0.33876163681445104 0.15306245754511413 0.3387616368144511
1.4482237080667645E8 0.15660279784837544 0.34230368753114204 0.8433972021516246 -0.34230368753114204 0.8433972021516246 -0.34230368753114204 0.15660279784837544 0.34230368753114204
1.4700794367256513E8 0.16021617985965236 0.34584779664750726 0.8397838201403477 -0.34584779664750726 0.8397838201403477 -0.34584779664750726 0.16021617985965236 0.34584779664750726
1.492264999009378E8 0.16390344553063885 0.3493924899551455 0.8360965544693613 -0.34939248995514544 0.8360965544693613 -0.34939248995514544 0.16390344553063885 0.3493924899551455
1.5147853725703382E8 0.16766540809130634 0.35293624210454705 0.8323345919086936 -0.35293624210454705 0.8323345919086936 -0.35293624210454705 0.16766540809130634 0.35293624210454705
1.5376456101806876E8 0.17150284955051365 0.35647747659935436 0.8284971504494864 -0.3564774765993544 0.8284971504494864 -0.3564774765993544 0.17150284955051365 0.35647747659935436
1.5608508408660066E8 0.1754165181373035 0.36001456590627634 0.8245834818626965 -0.36001456590627634 0.8245834818626965 -0.36001456590627634 0.1754165181373035 0.36001456590627634
1.5844062710560706E8 0.17940712568757014 0.36354583168687 0.8205928743124299 -0.36354583168687005 0.8205928743124299 -0.36354583168687005 0.17940712568757014 0.36354583168687
1.6083171857529896E8 0.18347534498129067 0.3670695451572948 0.8165246550187092 -0.3670695451572948 0.8165246550187092 -0.3670695451572948 0.18347534498129067 0.3670695451572948
1.632588949716973E8 0.18762180703603393 0.3705839275820043 0.8123781929639661 -0.3705839275820043 0.8123781929639661 -0.3705839275820043 0.18762180703603393 0.3705839275820043
1.6572270086699936E8 0.19184709836298203 0.374087150907154 0.808152901637018 -0.374087150907154 0.808152901637018 -0.374087150907154 0.19184709836298203 0.374087150907154
1.6822368905176118E8 0.19615175819223465 0.37757733853928455 0.8038482418077652 -0.37757733853928444 0.8038482418077652 -0.37757733853928444 0.19615175819223465 0.37757733853928455
1.7076242065892437E8 0.2005362756746929 0.38105256627456985 0.799463724325307 -0.3810525662745698 0.799463724325307 -0.3810525662745698 0.2005362756746929 0.38105256627456985
1.7333946528971428E8 0.20500108706835066 0.384510863383606 0.7949989129316494 -0.38451086338360596 0.7949989129316494 -0.38451086338360596 0.20500108706835066 0.384510863383606
1.7595540114143828E8 0.20954657291734854 0.3879502138563639 0.7904534270826515 -0.3879502138563639 0.7904534270826515 -0.3879502138563639 0.20954657291734854 0.3879502138563639
1.786108151372127E8 0.21417305523265723 0.3913685578115171 0.7858269447673427 -0.3913685578115171 0.7858269447673427 -0.3913685578115171 0.21417305523265723 0.3913685578115171
1.8130630305764765E8 0.21888079468376243 0.39476379307390647 0.7811192053162375 -0.39476379307390647 0.7811192053162375 -0.39476379307390647 0.21888079468376243 0.39476379307390647
1.840424696745189E8 0.2236699878112057 0.39813377692339313 0.7763300121887943 -0.3981337769233931 0.7763300121887943 -0.3981337769233931 0.2236699878112057 0.39813377692339313
1.8681992888645732E8 0.2285407642703054 0.4014763280178064 0.7714592357296945 -0.40147632801780647 0.7714592357296945 -0.40147632801780647 0.2285407642703054 0.4014763280178064
1.8963930385668582E8 0.23349318411681197 0.4047892284920815 0.766506815883188 -0.40478922849208154 0.766506815883188 -0.40478922849208154 0.23349318411681197 0.4047892284920815
1.92501227152835E8 0.23852723514566368 0.4080702262350345 0.7614727648543362 -0.4080702262350345 0.7614727648543362 -0.4080702262350345 0.23852723514566368 0.4080702262350345
1.9540634088886917E8 0.24364283029437586 0.411317037344521 0.756357169705624 -0.411317037344521 0.756357169705624 -0.411317037344521 0.24364283029437586 0.411317037344521
1.983552968691535E8 0.24883980512292442 0.4145273487609737 0.7511601948770755 -0.4145273487609737 0.7511601948770755 -0.4145273487609737 0.24883980512292442 0.4145273487609737
2.0134875673469606E8 0.2541179153822714 0.4176988210785287 0.7458820846177285 -0.41769882107852874 0.7458820846177285 -0.41769882107852874 0.2541179153822714 0.4176988210785287
2.0438739211159652E8 0.25947683468390287 0.4208290915321079 0.7405231653160973 -0.4208290915321079 0.7405231653160973 -0.4208290915321079 0.25947683468390287 0.4208290915321079
2.074718847617352E8 0.2649161522829296 0.42391577715795564 0.7350838477170704 -0.42391577715795564 0.7350838477170704 -0.42391577715795564 0.2649161522829296 0.42391577715795564
2.106029267357361E8 0.2704353709874078 0.42695647812421655 0.7295646290125921 -0.4269564781242165 0.7295646290125921 -0.4269564781242165 0.2704353709874078 0.42695647812421655
2.1378122052823865E8 0.2760339052065855 0.42994878122719926 0.7239660947934146 -0.4299487812271992 0.7239660947934146 -0.4299487812271992 0.2760339052065855 0.42994878122719926
2.1700747923551247E8 0.28171107915075205 0.43289026354800403 0.7182889208492479 -0.432890263548004 0.7182889208492479 -0.432890263548004 0.28171107915075205 0.43289026354800403
2.2028242671545094E8 0.2874661251952636 0.4357784962631993 0.7125338748047364 -0.4357784962631993 0.7125338748047364 -0.4357784962631993 0.2874661251952636 0.4357784962631993
2.23606797749979E8 0.2932981824211426 0.43861104860223254 0.7067018175788573 -0.43861104860223254 0.7067018175788573 -0.43861104860223254 0.2932981824211426 0.43861104860223254
2.2698133820991236E8 0.29920629534437865 0.4413854919432405 0.7007937046556213 -0.4413854919432405 0.7007937046556213 -0.4413854919432405 0.29920629534437865 0.4413854919432405
2.3040680522230446E8 0.3051894128457112 0.4440994040379135 0.6948105871542888 -0.4440994040379135 0.6948105871542888 -0.4440994040379135 0.3051894128457112 0.4440994040379135
2.338839673403185E8 0.3112463873122354 0.44675037335505374 0.6887536126877645 -0.44675037335505374 0.6887536126877645 -0.44675037335505374 0.3112463873122354 0.44675037335505374
2.37413604715664E8 0.3173759740016463 0.4493360035314743 0.6826240259983537 -0.4493360035314743 0.6826240259983537 -0.4493360035314743 0.3173759740016463 0.4493360035314743
2.4099650927363476E8 0.32357683063931525 0.4518539179179072 0.6764231693606846 -0.45185391791790713 0.6764231693606846 -0.45185391791790713 0.32357683063931525 0.4518539179179072
2.446334848907889E8 0.32984751725768663 0.4543017642066475 0.6701524827423133 -0.4543017642066474 0.6701524827423133 -0.4543017642066474 0.32984751725768663 0.4543017642066475
2.4832534757531032E8 0.33618649628668235 0.45667721912675263 0.6638135037133178 -0.4566772191267527 0.6638135037133178 -0.4566772191267527 0.33618649628668235 0.45667721912675263
2.5207292565009177E8 0.3425921329029126 0.45897799319175897 0.6574078670970873 -0.4589779931917589 0.6574078670970873 -0.4589779931917589 0.3425921329029126 0.45897799319175897
2.558770599385812E8 0.34906269564452724 0.46120183548407984 0.6509373043554728 -0.4612018354840798 0.6509373043554728 -0.4612018354840798 0.34906269564452724 0.46120183548407984
2.5973860395343277E8 0.35559635729746913 0.4633465384595105 0.6444036427025309 -0.46334653845951057 0.6444036427025309 -0.46334653845951057 0.35559635729746913 0.4633465384595105
2.6365842408800447E8 0.36219119605778244 0.4654099427546127 0.6378088039422176 -0.4654099427546127 0.6378088039422176 -0.4654099427546127 0.36219119605778244 0.4654099427546127
2.676373998107465E8 0.36884519697340235 0.46738994197916667 0.6311548030265978 -0.46738994197916667 0.6311548030265978 -0.46738994197916667 0.36884519697340235 0.46738994197916667
2.7167642386252224E8 0.3755562536675955 0.4692844874754022 0.6244437463324044 -0.4692844874754022 0.6244437463324044 -0.4692844874754022 0.3755562536675955 0.4692844874754022
2.757764024569081E8 0.3823221703448854 0.47109159302532727 0.6176778296551145 -0.47109159302532727 0.6176778296551145 -0.47109159302532727 0.3823221703448854 0.47109159302532727
2.7993825548351544E8 0.38914066407892134 0.47280933948719617 0.6108593359210788 -0.4728093394871961 0.6108593359210788 -0.4728093394871961 0.38914066407892134 0.47280933948719617
2.8416291671438086E8 0.3960093673803283 0.47443587934198783 0.6039906326196718 -0.4744358793419878 0.6039906326196718 -0.4744358793419878 0.3960093673803283 0.47443587934198783
2.884513340134719E8 0.40292583104112323 0.4759694411307172 0.5970741689588768 -0.4759694411307173 0.5970741689588768 -0.4759694411307173 0.40292583104112323 0.4759694411307172
2.9280446954935396E8 0.40988752725081656 0.4774083337634677 0.5901124727491834 -0.4774083337634677 0.5901124727491834 -0.4774083337634677 0.40988752725081656 0.4774083337634677
2.972233000110666E8 0.41689185297782627 0.4787509506812306 0.5831081470221737 -0.4787509506812306 0.5831081470221737 -0.4787509506812306 0.41689185297782627 0.4787509506812306
3.0170881682725817E8 0.4239361336083709 0.47999577385196207 0.5760638663916291 -0.47999577385196207 0.5760638663916291 -0.47999577385196207 0.4239361336083709 0.47999577385196207
3.0626202638862675E8 0.4310176268335216 0.4811413775827126 0.5689823731664784 -0.48114137758271247 0.5689823731664784 -0.48114137758271247 0.4310176268335216 0.4811413775827126
3.1088395027371895E8 0.43813352677367995 0.48218643213026874 0.5618664732263201 -0.48218643213026874 0.5618664732263201 -0.48218643213026874 0.43813352677367995 0.48218643213026874
3.1557562547813565E8 0.4452809683283265 0.4831297070934485 0.5547190316716734 -0.4831297070934485 0.5547190316716734 -0.4831297070934485 0.4452809683283265 0.4831297070934485
3.203381046471968E8 0.45245703173755614 0.4839700745710213 0.5475429682624438 -0.4839700745710212 0.5475429682624438 -0.4839700745710212 0.45245703173755614 0.4839700745710213
3.251724563121182E8 0.4596587473406202 0.4847065120701737 0.5403412526593798 -0.4847065120701738 0.5403412526593798 -0.4847065120701738 0.4596587473406202 0.4847065120701737
3.3007976512975127E8 0.4668831005154919 0.48533810515150594 0.5331168994845081 -0.4853381051515059 0.5331168994845081 -0.4853381051515059 0.4668831005154919 0.48533810515150594
3.350611321259421E8 0.4741270367823473 0.48586404979771114 0.5258729632176528 -0.48586404979771114 0.5258729632176528 -0.48586404979771114 0.4741270367823473 0.48586404979771114
3.401176749425622E8 0.4813874670528282 0.4862836544943678 0.518612532947172 -0.4862836544943678 0.518612532947172 -0.4862836544943678 0.4813874670528282 0.4862836544943678
3.4525052808826786E8 0.4886612730060322 0.4865963420126313 0.5113387269939678 -0.4865963420126313 0.5113387269939678 -0.4865963420126313 0.4886612730060322 0.4865963420126313
3.5046084319304353E8 0.49594531257137514 0.4868016508850598 0.5040546874286248 -0.4868016508850598 0.5040546874286248 -0.4868016508850598 0.49594531257137514 0.4868016508850598
3.5574978926658666E8 0.5032364254977877 0.48689923656731804 0.4967635745022124 -0.48689923656731804 0.4967635745022124 -0.48689923656731804 0.5032364254977877 0.48689923656731804
3.61118552960592E8 0.510531438988157 0.4868888722800806 0.489468561011843 -0.4868888722800806 0.489468561011843 -0.4868888722800806 0.510531438988157 0.4868888722800806
3.665683388349941E8 0.517827173377516 0.48677044952707005 0.48217282662248406 -0.48677044952707005 0.48217282662248406 -0.48677044952707005 0.517827173377516 0.48677044952707005
3.721003696282278E8 0.5251204478331969 0.48654397828681645 0.474879552166803 -0.48654397828681645 0.474879552166803 -0.48654397828681645 0.5251204478331969 0.48654397828681645
3.777158865315673E8 0.5324080860550474 0.48620958687740107 0.46759191394495275 -0.4862095868774012 0.46759191394495275 -0.4862095868774012 0.5324080860550474 0.48620958687740107
3.834161494676055E8 0.5396869219538055 0.48576752149511315 0.4603130780461945 -0.48576752149511315 0.4603130780461945 -0.48576752149511315 0.5396869219538055 0.48576752149511315
3.892024373729356E8 0.5469538052858969 0.48521814542962893 0.4530461947141032 -0.48521814542962893 0.4530461947141032 -0.48521814542962893 0.5469538052858969 0.48521814542962893
3.950760484850994E8 0.5542056072232087 0.48456193795995955 0.4457943927767912 -0.48456193795995955 0.4457943927767912 -0.48456193795995955 0.5542056072232087 0.48456193795995955
4.010383006338658E8 0.5614392258368328 0.48379949293703256 0.43856077416316713 -0.48379949293703267 0.43856077416316713 -0.48379949293703267 0.5614392258368328 0.48379949293703256
4.0709053153690434E8 0.5686515914743469 0.4829315170603328 0.4313484085256531 -0.4829315170603328 0.4313484085256531 -0.4829315170603328 0.5686515914743469 0.4829315170603328
4.1323409909992224E8 0.5758396720109017 0.4819588278575326 0.4241603279890982 -0.4819588278575325 0.4241603279890982 -0.4819588278575325 0.5758396720109017 0.4819588278575326
4.194703817213299E8 0.5830004779552075 0.48088235137747515 0.41699952204479257 -0.4808823513774751 0.41699952204479257 -0.4808823513774751 0.5830004779552075 0.48088235137747515
4.258007786015047E8 0.5901310673924491 0.47970311960821976 0.409868932607551 -0.47970311960821976 0.409868932607551 -0.47970311960821976 0.5901310673924491 0.47970311960821976
4.3222671005672157E8 0.5972285507472133 0.47842226763311657 0.4027714492527866 -0.47842226763311657 0.4027714492527866 -0.47842226763311657 0.5972285507472133 0.47842226763311657
4.3874961783782214E8 0.6042900953506437 0.47704103053903024 0.39570990464935624 -0.47704103053903024 0.39570990464935624 -0.47704103053903024 0.6042900953506437 0.47704103053903024
4.453709654536917E8 0.6113129297972643 0.47556074009187643 0.38868707020273563 -0.47556074009187643 0.38868707020273563 -0.47556074009187643 0.6113129297972643 0.47556074009187643
4.520922384996192E8 0.6182943480782193 0.4739828211955659 0.38170565192178074 -0.4739828211955659 0.38170565192178074 -0.4739828211955659 0.6182943480782193 0.4739828211955659
4.589149449906117E8 0.6252317134790295 0.47230878815125155 0.3747682865209705 -0.47230878815125155 0.3747682865209705 -0.47230878815125155 0.6252317134790295 0.47230878815125155
4.658406156997396E8 0.6321224622313826 0.4705402407344625 0.3678775377686175 -0.4705402407344625 0.3678775377686175 -0.4705402407344625 0.6321224622313826 0.4705402407344625
4.728708045015879E8 0.6389641069099128 0.46867886010825793 0.36103589309008727 -0.46867886010825793 0.36103589309008727 -0.46867886010825793 0.6389641069099128 0.46867886010825793
4.800070887208901E8 0.6457542395664078 0.46672640459095843 0.3542457604335923 -0.4667264045909585 0.3542457604335923 -0.4667264045909585 0.6457542395664078 0.46672640459095843
4.87251069486424E8 0.6524905345953568 0.4646847052973089 0.34750946540464306 -0.4646847052973089 0.34750946540464306 -0.4646847052973089 0.6524905345953568 0.4646847052973089
4.946043720902484E8 0.6591707513262396 0.46255566167209283 0.3408292486737605 -0.4625556616720929 0.3408292486737605 -0.4625556616720929 0.6591707513262396 0.46255566167209283
5.0206864635236067E8 0.665792736339429 0.4603412369352587 0.33420726366057096 -0.4603412369352587 0.33420726366057096 -0.4603412369352587 0.665792736339429 0.4603412369352587
5.0964556699085766E8 0.6723544255040299 0.4580434534575388 0.32764557449597004 -0.4580434534575388 0.32764557449597004 -0.4580434534575388 0.6723544255040299 0.4580434534575388
5.173368339976832E8 0.6788538457373885 0.45566438808534176 0.3211461542626116 -0.45566438808534176 0.3211461542626116 -0.45566438808534176 0.6788538457373885 0.45566438808534176
5.2514417302004623E8 0.685289116487382 0.4532061674333891 0.31471088351261817 -0.4532061674333891 0.31471088351261817 -0.4532061674333891 0.685289116487382 0.4532061674333891
5.330693357475939E8 0.6916584509399168 0.4506709631631503 0.3083415490600832 -0.4506709631631503 0.3083415490600832 -0.4506709631631503 0.6916584509399168 0.4506709631631503
5.411141003054292E8 0.6979601569553191 0.4480609872646165 0.30203984304468084 -0.44806098726461646 0.30203984304468084 -0.44806098726461646 0.6979601569553191 0.4480609872646165
5.49280271653059E8 0.7041926377384907 0.4453784873583462 0.2958073622615092 -0.4453784873583462 0.2958073622615092 -0.4453784873583462 0.7041926377384907 0.4453784873583462
5.575696819893626E8 0.7103543922488247 0.44262574203402844 0.28964560775117526 -0.44262574203402844 0.28964560775117526 -0.44262574203402844 0.7103543922488247 0.44262574203402844
5.659841911636728E8 0.716444015356897 0.43980505624105015 0.28355598464310305 -0.4398050562410502 0.28355598464310305 -0.4398050562410502 0.716444015356897 0.43980505624105015
5.745256870930587E8 0.7224601977559089 0.4369187567457237 0.2775398022440911 -0.43691875674572367 0.2775398022440911 -0.43691875674572367 0.7224601977559089 0.4369187567457237
5.831960861859089E8 0.7284017256367141 0.43396918766895104 0.27159827436328593 -0.43396918766895104 0.27159827436328593 -0.43396918766895104 0.7284017256367141 0.43396918766895104
5.919973337719042E8 0.7342674801360292 0.4309587061171738 0.2657325198639708 -0.4309587061171738 0.2657325198639708 -0.4309587061171738 0.7342674801360292 0.4309587061171738
6.009314045384814E8 0.7400564365681065 0.42788967791849297 0.2599435634318935 -0.42788967791849297 0.2599435634318935 -0.42788967791849297 0.7400564365681065 0.42788967791849297
6.100003029738818E8 0.7457676634507384 0.42476447347484286 0.25423233654926153 -0.424764473474843 0.25423233654926153 -0.424764473474843 0.7457676634507384 0.42476447347484286
6.19206063816889E8 0.7514003213369402 0.42158546374010375 0.24859967866305985 -0.42158546374010375 0.24859967866305985 -0.42158546374010375 0.7514003213369402 0.42158546374010375
6.285507525133506E8 0.7569536614640711 0.4183550163330005 0.243046338535929 -0.4183550163330005 0.243046338535929 -0.4183550163330005 0.7569536614640711 0.4183550163330005
6.380364656795913E8 0.7624270242324567 0.4150754917926199 0.23757297576754322 -0.41507549179261977 0.23757297576754322 -0.41507549179261977 0.7624270242324567 0.4150754917926199
6.476653315728192E8 0.7678198375258002 0.41174923998335217 0.23218016247419976 -0.41174923998335217 0.23218016247419976 -0.41174923998335217 0.7678198375258002 0.41174923998335217
6.574395105686314E8 0.7731316148858054 0.4083785966550578 0.2268683851141946 -0.4083785966550579 0.2268683851141946 -0.4083785966550579 0.7731316148858054 0.4083785966550578
6.67361195645725E8 0.7783619535534992 0.4049658801632698 0.22163804644650092 -0.4049658801632698 0.22163804644650092 -0.4049658801632698 0.7783619535534992 0.4049658801632698
6.774326128779243E8 0.7835105323897145 0.40151338835327854 0.21648946761028537 -0.40151338835327854 0.21648946761028537 -0.40151338835327854 0.7835105323897145 0.40151338835327854
6.876560219336321E8 0.7885771096871136 0.39802339561101574 0.2114228903128864 -0.39802339561101574 0.2114228903128864 -0.39802339561101574 0.7885771096871136 0.39802339561101574
6.980337165828195E8 0.7935615208859637 0.3944981500827515 0.2064384791140363 -0.39449815008275146 0.2064384791140363 -0.39449815008275146 0.7935615208859637 0.3944981500827515
7.085680252116663E8 0.7984636762056752 0.3909398710647661 0.20153632379432487 -0.39093987106476596 0.20153632379432487 -0.39093987106476596 0.7984636762056752 0.3909398710647661
7.192613113449682E8 0.8032835582038214 0.3873507465633415 0.1967164417961786 -0.38735074656334145 0.1967164417961786 -0.38735074656334145 0.8032835582038214 0.3873507465633415
7.301159741764276E8 0.8080212192740472 0.38373293102465184 0.1919787807259527 -0.38373293102465195 0.1919787807259527 -0.38373293102465195 0.8080212192740472 0.38373293102465184
7.411344491069478E8 0.8126767790938989 0.38008854323340996 0.18732322090610112 -0.38008854323340996 0.18732322090610112 -0.38008854323340996 0.8126767790938989 0.38008854323340996
7.523192082910503E8 0.8172504220331962 0.37641966437846575 0.18274957796680383 -0.37641966437846575 0.18274957796680383 -0.37641966437846575 0.8172504220331962 0.37641966437846575
7.636727611915388E8 0.8217423945331335 0.37272833628293073 0.1782576054668665 -0.37272833628293073 0.1782576054668665 -0.37272833628293073 0.8217423945331335 0.37272833628293073
7.751976551425331E8 0.8261530024658168 0.36901655979584286 0.17384699753418326 -0.36901655979584286 0.17384699753418326 -0.36901655979584286 0.8261530024658168 0.36901655979584286
7.868964759210002E8 0.8304826084834509 0.36528629334187634 0.1695173915165491 -0.36528629334187634 0.1695173915165491 -0.36528629334187634 0.8304826084834509 0.36528629334187634
7.987718483269122E8 0.834731629365885 0.36153945162514295 0.16526837063411504 -0.36153945162514295 0.16526837063411504 -0.36153945162514295 0.834731629365885 0.36153945162514295
8.108264367721564E8 0.8389005333746864 0.35777790448272856 0.16109946662531366 -0.35777790448272856 0.16109946662531366 -0.35777790448272856 0.8389005333746864 0.35777790448272856
8.230629458783358E8 0.842989837621391 0.35400347588325254 0.15701016237860893 -0.3540034758832525 0.15701016237860893 -0.3540034758832525 0.842989837621391 0.35400347588325254
8.354841210835901E8 0.8470001054570281 0.35021794306543735 0.15299989454297191 -0.35021794306543735 0.15299989454297191 -0.35021794306543735 0.8470001054570281 0.35021794306543735
8.48092749258575E8 0.8509319438894838 0.3464230358114167 0.14906805611051627 -0.3464230358114167 0.14906805611051627 -0.3464230358114167 0.8509319438894838 0.3464230358114167
8.608916593317347E8 0.8547860010347282 0.3426204358493062 0.14521399896527173 -0.34262043584930624 0.14521399896527173 -0.34262043584930624 0.8547860010347282 0.3426204358493062
8.738837229240161E8 0.8585629636074043 0.33881177637938714 0.14143703639259572 -0.33881177637938714 0.14143703639259572 -0.33881177637938714 0.8585629636074043 0.33881177637938714
8.870718549931567E8 0.8622635544557469 0.33499864171814253 0.1377364455442531 -0.33499864171814253 0.1377364455442531 -0.33499864171814253 0.8622635544557469 0.33499864171814253
9.004590144876978E8 0.8658885301453051 0.33118256705428883 0.13411146985469485 -0.33118256705428883 0.13411146985469485 -0.33118256705428883 0.8658885301453051 0.33118256705428883
9.140482050108682E8 0.8694386785954357 0.3273650383109071 0.13056132140456445 -0.3273650383109071 0.13056132140456445 -0.3273650383109071 0.8694386785954357 0.3273650383109071
9.278424754944855E8 0.8729148167720631 0.32354749210776085 0.127085183227937 -0.3235474921077609 0.127085183227937 -0.3235474921077609 0.8729148167720631 0.32354749210776085
9.418449208830277E8 0.8763177884397464 0.31973131581790626 0.12368221156025369 -0.31973131581790626 0.12368221156025369 -0.31973131581790626 0.8763177884397464 0.31973131581790626
9.560586828280303E8 0.879648461975645 0.31591784771274767 0.12035153802435501 -0.31591784771274767 0.12035153802435501 -0.31591784771274767 0.879648461975645 0.31591784771274767
9.704869503929601E8 0.8829077282475689 0.3121083771897642 0.1170922717524312 -0.31210837718976414 0.1170922717524312 -0.31210837718976414 0.8829077282475689 0.3121083771897642
9.85132960768728E8 0.8860964985578942 0.3083041450772259 0.11390350144210579 -0.30830414507722587 0.11390350144210579 -0.30830414507722587 0.8860964985578942 0.3083041450772259
1.0E9 0.8892157026547584 0.30450634401034105 0.11078429734524177 -0.30450634401034105 0.11078429734524177 -0.30450634401034105 0.8892157026547584 0.30450634401034105
1.0150914037224686E9 0.8922662868115939 0.3007161188734004 0.10773371318840606 -0.3007161188734004 0.10773371318840606 -0.3007161188734004 0.8922662868115939 0.3007161188734004
1.0304105579112525E9 0.8952492119757404 0.29693456730264534 0.1047507880242596 -0.29693456730264534 0.1047507880242596 -0.29693456730264534 0.8952492119757404 0.29693456730264534
1.0459608996405853E9 0.8981654519865587 0.2931627402447429 0.10183454801344133 -0.2931627402447429 0.10183454801344133 -0.2931627402447429 0.8981654519865587 0.2931627402447429
1.0617459178549787E9 0.9010159918632079 0.28940164256592393 0.098984008136792 -0.28940164256592393 0.098984008136792 -0.28940164256592393 0.9010159918632079 0.28940164256592393
1.0777691541520112E9 0.9038018261619708 0.28565223370703297 0.09619817383802914 -0.28565223370703297 0.09619817383802914 -0.28565223370703297 0.9038018261619708 0.28565223370703297
1.0940342035769434E9 0.9065239574027902 0.2819154283799157 0.09347604259720983 -0.2819154283799157 0.09347604259720983 -0.2819154283799157 0.9065239574027902 0.2819154283799157
1.1105447154293125E9 0.9091833945644583 0.27819209730077754 0.09081660543554185 -0.27819209730077754 0.09081660543554185 -0.27819209730077754 0.9091833945644583 0.27819209730077754
1.127304394081711E9 0.9117811516477113 0.27448306795633565 0.08821884835228865 -0.27448306795633565 0.08821884835228865 -0.27448306795633565 0.9117811516477113 0.27448306795633565
1.1443169998109112E9 0.9143182463053077 0.2707891253987948 0.08568175369469233 -0.2707891253987949 0.08568175369469233 -0.2707891253987949 0.9143182463053077 0.2707891253987948
1.1615863496415424E9 0.9167956985380113 0.2671110130658728 0.08320430146198873 -0.2671110130658728 0.08320430146198873 -0.2671110130658728 0.9167956985380113 0.2671110130658728
1.1791163182024915E9 0.919214529455273 0.26344943362230605 0.08078547054472705 -0.26344943362230605 0.08078547054472705 -0.26344943362230605 0.919214529455273 0.26344943362230605
1.196910838596237E9 0.9215757600992776 0.259805049819461 0.07842423990072245 -0.259805049819461 0.07842423990072245 -0.259805049819461 0.9215757600992776 0.259805049819461
1.2149739032812912E9 0.9238804103309256 0.2561784853698752 0.07611958966907455 -0.2561784853698752 0.07611958966907455 -0.2561784853698752 0.9238804103309256 0.2561784853698752
1.2333095649679737E9 0.9261294977762312 0.25257032583374034 0.07387050222376869 -0.2525703258337403 0.07387050222376869 -0.2525703258337403 0.9261294977762312 0.25257032583374034
1.2519219375276875E9 0.9283240368315476 0.24898111951453056 0.07167596316845234 -0.24898111951453053 0.07167596316845234 -0.24898111951453053 0.9283240368315476 0.24898111951453056
1.2708151969159338E9 0.9304650377259645 0.24541137836115684 0.06953496227403563 -0.24541137836115684 0.06953496227403563 -0.24541137836115684 0.9304650377259645 0.24541137836115684
1.2899935821092408E9 0.9325535056391839 0.24186157887421064 0.067446494360816 -0.24186157887421064 0.067446494360816 -0.24186157887421064 0.9325535056391839 0.24186157887421064
1.3094613960562458E9 0.9345904398731428 0.23833216301402063 0.06540956012685724 -0.23833216301402063 0.06540956012685724 -0.23833216301402063 0.9345904398731428 0.23833216301402063
1.329223006643118E9 0.936576833075613 0.2348235391084226 0.06342316692438704 -0.2348235391084226 0.06342316692438704 -0.2348235391084226 0.936576833075613 0.2348235391084226
1.3492828476735637E9 0.9385136705140156 0.23133608275828468 0.06148632948598439 -0.23133608275828468 0.06148632948598439 -0.23133608275828468 0.9385136705140156 0.23133608275828468
1.3696454198636076E9 0.9404019293976532 0.22787013773899634 0.059598070602346766 -0.22787013773899634 0.059598070602346766 -0.22787013773899634 0.9404019293976532 0.22787013773899634
1.3903152918514004E9 0.942242578246583 0.22442601689625524 0.0577574217534169 -0.22442601689625524 0.0577574217534169 -0.22442601689625524 0.942242578246583 0.22442601689625524
1.4112971012222517E9 0.9440365763053471 0.22100400303463813 0.055963423694652965 -0.22100400303463813 0.055963423694652965 -0.22100400303463813 0.9440365763053471 0.22100400303463813
1.4325955555491471E9 0.9457848729997941 0.21760434979755747 0.05421512700020588 -0.2176043497975575 0.05421512700020588 -0.2176043497975575 0.9457848729997941 0.21760434979755747
1.4542154334489536E9 0.9474884074352441 0.21422728253733675 0.05251159256475596 -0.21422728253733675 0.05251159256475596 -0.21422728253733675 0.9474884074352441 0.21422728253733675
1.4761615856545765E9 0.9491481079342644 0.21087299917424607 0.05085189206573563 -0.21087299917424607 0.05085189206573563 -0.21087299917424607 0.9491481079342644 0.21087299917424607
1.4984389361032903E9 0.9507648916123589 0.20754167104345142 0.04923510838764109 -0.20754167104345145 0.04923510838764109 -0.20754167104345145 0.9507648916123589 0.20754167104345142
1.5210524830414915E9 0.9523396639898939 0.20423344372893062 0.04766033601010614 -0.20423344372893062 0.04766033601010614 -0.20423344372893062 0.9523396639898939 0.20423344372893062
1.544007300146135E9 0.9538733186386216 0.2009484378835035 0.04612668136137849 -0.2009484378835035 0.04612668136137849 -0.2009484378835035 0.9538733186386216 0.2009484378835035
1.567308537663079E9 0.9553667368611937 0.1976867500342155 0.0446332631388064 -0.1976867500342155 0.0446332631388064 -0.1976867500342155 0.9553667368611937 0.1976867500342155
1.5909614235626256E9 0.9568207874020954 0.19444845337239136 0.043179212597904464 -0.19444845337239136 0.043179212597904464 -0.19444845337239136 0.9568207874020954 0.19444845337239136
1.6149712647124827E9 0.9582363261884669 0.19123359852775992 0.0417636738115331 -0.19123359852775995 0.0417636738115331 -0.19123359852775995 0.9582363261884669 0.19123359852775992
1.6393434480684454E9 0.9596141960993178 0.18804221432611234 0.040385803900682256 -0.18804221432611232 0.040385803900682256 -0.18804221432611232 0.9596141960993178 0.18804221432611234
1.6640834418830307E9 0.9609552267616839 0.18487430853003328 0.039044773238316066 -0.18487430853003328 0.039044773238316066 -0.18487430853003328 0.9609552267616839 0.18487430853003328
1.6891967969323635E9 0.9622602343723109 0.18172986856229595 0.03773976562768914 -0.18172986856229598 0.03773976562768914 -0.18172986856229598 0.9622602343723109 0.18172986856229595
1.7146891477615707E9 0.9635300215434919 0.17860886221157263 0.03646997845650809 -0.17860886221157266 0.03646997845650809 -0.17860886221157266 0.9635300215434919 0.17860886221157263
1.7405662139489775E9 0.9647653771717306 0.17551123832016283 0.03523462282826955 -0.17551123832016283 0.03523462282826955 -0.17551123832016283 0.9647653771717306 0.17551123832016283
1.7668338013893702E9 0.9659670763279337 0.17243692745348838 0.03403292367206643 -0.17243692745348838 0.03403292367206643 -0.17243692745348838 0.9659670763279337 0.17243692745348838
1.7934978035966423E9 0.9671358801678881 0.16938584255114386 0.03286411983211187 -0.16938584255114386 0.03286411983211187 -0.16938584255114386 0.9671358801678881 0.16938584255114386
1.8205642030260801E9 0.9682725358618064 0.1663578795593356 0.03172746413819351 -0.1663578795593356 0.03172746413819351 -0.1663578795593356 0.9682725358618064 0.1663578795593356
1.8480390724166224E9 0.9693777765417713 0.16335291804457 0.030622223458228747 -0.16335291804457 0.030622223458228747 -0.16335291804457 0.9693777765417713 0.16335291804457
1.875928576153358E9 0.9704523212659443 0.16037082178849016 0.02954767873405572 -0.16037082178849013 0.02954767873405572 -0.16037082178849013 0.9704523212659443 0.16037082178849016
1.9042389716506054E9 0.9714968749984453 0.15741143936377766 0.028503125001554684 -0.15741143936377766 0.028503125001554684 -0.15741143936377766 0.9714968749984453 0.15741143936377766
1.9329766107558432E9 0.9725121286038388 0.1544746046910731 0.02748787139616118 -0.15447460469107313 0.02748787139616118 -0.15447460469107313 0.9725121286038388 0.1544746046910731
1.96214794117485E9 0.9734987588552064 0.1515601375768754 0.026501241144793526 -0.1515601375768754 0.026501241144793526 -0.1515601375768754 0.9734987588552064 0.1515601375768754
1.9917595079183304E9 0.974457428454814 0.14866784423240978 0.02554257154518596 -0.14866784423240978 0.02554257154518596 -0.14866784423240978 0.974457428454814 0.14866784423240978
2.0218179547703927E9 0.9753887860664168 0.14579751777346037 0.024611213933583214 -0.14579751777346034 0.024611213933583214 -0.14579751777346034 0.9753887860664168 0.14579751777346037
2.0523300257791686E9 0.9762934663582774 0.1429489387011799 0.02370653364172264 -0.1429489387011799 0.02370653364172264 -0.1429489387011799 0.9762934663582774 0.1429489387011799
2.0833025667699478E9 0.9771720900560023 0.140121875363894 0.022827909943997794 -0.14012187536389398 0.022827909943997794 -0.14012187536389398 0.9771720900560023 0.140121875363894
2.1147425268811283E9 0.9780252640043299 0.13731608439992707 0.021974735995670135 -0.1373160843999271 0.021974735995670135 -0.1373160843999271 0.9780252640043299 0.13731608439992707
2.1466569601233647E9 0.9788535812370337 0.13453131116147496 0.02114641876296629 -0.134531311161475 0.02114641876296629 -0.134531311161475 0.9788535812370337 0.13453131116147496
2.179053026962235E9 0.9796576210541259 0.13176729011955346 0.020342378945873898 -0.13176729011955346 0.020342378945873898 -0.13176729011955346 0.9796576210541259 0.13176729011955346
2.21193799592479E9 0.9804379491055755 0.12902374525004942 0.019562050894424598 -0.12902374525004942 0.019562050894424598 -0.12902374525004942 0.9804379491055755 0.12902374525004942
2.2453192452303605E9 0.9811951174807714 0.12630039040088853 0.018804882519228606 -0.12630039040088853 0.018804882519228606 -0.12630039040088853 0.9811951174807714 0.12630039040088853
2.27920426444596E9 0.9819296648029926 0.12359692964033615 0.018070335197007507 -0.12359692964033615 0.018070335197007507 -0.12359692964033615 0.9819296648029926 0.12359692964033615
2.313600656166688E9 0.9826421163281499 0.12091305758642468 0.017357883671850167 -0.12091305758642468 0.017357883671850167 -0.12091305758642468 0.9826421163281499 0.12091305758642468
2.348516137721468E9 0.9833329840470972 0.11824845971749558 0.016667015952902757 -0.11824845971749556 0.016667015952902757 -0.11824845971749556 0.9833329840470972 0.11824845971749558
2.383958542904557E9 0.9840027667908133 0.11560281266381693 0.01599723320918673 -0.11560281266381693 0.01599723320918673 -0.11560281266381693 0.9840027667908133 0.11560281266381693
2.4199358237331576E9 0.9846519503377705 0.11297578448022526 0.01534804966222949 -0.11297578448022529 0.01534804966222949 -0.11297578448022529 0.9846519503377705 0.11297578448022526
2.456456052231581E9 0.98528100752282 0.11036703489970395 0.014718992477179981 -0.11036703489970395 0.014718992477179981 -0.11036703489970395 0.98528100752282 0.11036703489970395
2.4935274222423096E9 0.985890398346922 0.10777621556779286 0.01410960165307795 -0.10777621556779286 0.01410960165307795 -0.10777621556779286 0.985890398346922 0.10777621556779286
2.5311582512644167E9 0.9864805700870608 0.1052029702576778 0.013519429912939147 -0.1052029702576778 0.013519429912939147 -0.1052029702576778 0.9864805700870608 0.1052029702576778
2.5693569823197055E9 0.9870519574056784 0.10264693506578106 0.012948042594321559 -0.10264693506578106 0.012948042594321559 -0.10264693506578106 0.9870519574056784 0.10264693506578106
2.6081321858470373E9 0.987604982458961 0.10010773858762007 0.012395017541039046 -0.10010773858762007 0.012395017541039046 -0.10010773858762007 0.987604982458961 0.10010773858762007
2.64749256162522E9 0.9881400550033005 0.09758500207366146 0.011859944996699536 -0.09758500207366146 0.011859944996699536 -0.09758500207366146 0.9881400550033005 0.09758500207366146
2.687446940724941E9 0.9886575724992442 0.09507833956483248 0.011342427500755724 -0.0950783395648325 0.011342427500755724 -0.0950783395648325 0.9886575724992442 0.09507833956483248
2.7280042874901342E9 0.9891579202122228 0.09258735800729671 0.01084207978777711 -0.09258735800729671 0.01084207978777711 -0.09258735800729671 0.9891579202122228 0.09258735800729671
2.769173701549275E9 0.989641471309324 0.09011165734602318 0.010358528690676008 -0.09011165734602318 0.010358528690676008 -0.09011165734602318 0.989641471309324 0.09011165734602318
2.810964419856998E9 0.9901085869513455 0.08765083059660438 0.009891413048654348 -0.0876508305966044 0.009891413048654348 -0.0876508305966044 0.9901085869513455 0.08765083059660438
2.8533858187665567E9 0.9905596163793214 0.08520446389468174 0.009440383620678571 -0.08520446389468174 0.009440383620678571 -0.08520446389468174 0.9905596163793214 0.08520446389468174
2.896447416133529E9 0.9909948969946567 0.082772136522242 0.009005103005343216 -0.082772136522242 0.009005103005343216 -0.082772136522242 0.9909948969946567 0.082772136522242
2.9401588734513035E9 0.9914147544319531 0.08035342090992716 0.008585245568046825 -0.08035342090992717 0.008585245568046825 -0.08035342090992717 0.9914147544319531 0.08035342090992716
2.984529998018756E9 0.991819502623516 0.07794788261437575 0.008180497376483969 -0.07794788261437575 0.008180497376483969 -0.07794788261437575 0.991819502623516 0.07794788261437575
3.0295707451406775E9 0.9922094438544479 0.0755550802694608 0.007790556145552288 -0.0755550802694608 0.007790556145552288 -0.0755550802694608 0.9922094438544479 0.0755550802694608
3.0752912203613753E9 0.992584868807108 0.07317456551012744 0.00741513119289204 -0.07317456551012745 0.00741513119289204 -0.07317456551012745 0.992584868807108 0.07317456551012744
3.1217016817320123E9 0.9929460565935821 0.07080588286733795 0.007053943406417856 -0.07080588286733795 0.007053943406417856 -0.07080588286733795 0.9929460565935821 0.07080588286733795
3.1688125421121416E9 0.9932932747746225 0.06844856963241817 0.0067067252253775085 -0.06844856963241817 0.0067067252253775085 -0.06844856963241817 0.9932932747746225 0.06844856963241817
3.216634371505978E9 0.993626779363315 0.06610215568884854 0.006373220636685069 -0.06610215568884853 0.006373220636685069 -0.06610215568884853 0.993626779363315 0.06610215568884854
3.265177899433946E9 0.9939468148114635 0.06376616330925611 0.006053185188536478 -0.06376616330925612 0.006053185188536478 -0.06376616330925612 0.9939468148114635 0.06376616330925611
3.314454017339986E9 0.9942536139763637 0.06144010691504126 0.005746386023636282 -0.06144010691504126 0.005746386023636282 -0.06144010691504126 0.9942536139763637 0.06144010691504126
3.364473781035224E9 0.9945473980652421 0.059123492795685226 0.005452601934757971 -0.059123492795685226 0.005452601934757971 -0.059123492795685226 0.9945473980652421 0.059123492795685226
3.4152484131784873E9 0.9948283765541496 0.056815818784358554 0.005171623445850479 -0.056815818784358554 0.005171623445850479 -0.056815818784358554 0.9948283765541496 0.056815818784358554
3.4667893057942863E9 0.9950967470774895 0.054516573885932375 0.004903252922510544 -0.05451657388593237 0.004903252922510544 -0.05451657388593237 0.9950967470774895 0.054516573885932375
3.5191080228287644E9 0.9953526952835967 0.05222523785291638 0.0046473047164032905 -0.05222523785291638 0.0046473047164032905 -0.05222523785291638 0.9953526952835967 0.05222523785291638
3.5722163027442546E9 0.9955963946508288 0.04994128070415691 0.004403605349171214 -0.04994128070415691 0.004403605349171214 -0.04994128070415691 0.9955963946508288 0.04994128070415691
3.626126061152952E9 0.9958280062574132 0.04766416218033864 0.004171993742586879 -0.04766416218033865 0.004171993742586879 -0.04766416218033865 0.9958280062574132 0.04766416218033864
3.680849393490379E9 0.9960476784967472 0.045393331129403455 0.003952321503252841 -0.04539333112940345 0.003952321503252841 -0.04539333112940345 0.9960476784967472 0.045393331129403455
3.736398577729146E9 0.9962555467278581 0.043128224813932005 0.0037444532721419613 -0.043128224813932005 0.0037444532721419613 -0.043128224813932005 0.9962555467278581 0.043128224813932005
3.7927860771337166E9 0.9964517328481569 0.04086826813128115 0.0035482671518430715 -0.04086826813128114 0.0035482671518430715 -0.04086826813128114 0.9964517328481569 0.04086826813128115
3.8500245430566998E9 0.996636344772269 0.038612872735844725 0.0033636552277310286 -0.03861287273584473 0.0033636552277310286 -0.03861287273584473 0.996636344772269 0.038612872735844725
3.908126817777384E9 0.9968094757963158 0.03636143605116468 0.003190524203684157 -0.03636143605116468 0.003190524203684157 -0.03636143605116468 0.9968094757963158 0.03636143605116468
3.9671059373830695E9 0.9969712038211936 0.034113340157791563 0.0030287961788061477 -0.03411334015779155 0.0030287961788061477 -0.03411334015779155 0.9969712038211936 0.034113340157791563
4.0269751346939225E9 0.9971215904006004 0.031867950540789794 0.0028784095993995163 -0.03186795054078979 0.0028784095993995163 -0.03186795054078979 0.9971215904006004 0.031867950540789794
4.0877478422319307E9 0.9972606795690677 0.029624614678706373 0.0027393204309323536 -0.029624614678706366 0.0027393204309323536 -0.029624614678706366 0.9972606795690677 0.029624614678706373
4.1494376952347054E9 0.9973884963909982 0.027382660453847713 0.002611503609001762 -0.02738266045384772 0.002611503609001762 -0.02738266045384772 0.9973884963909982 0.027382660453847713
4.212058534714722E9 0.9975050451521443 0.02514139436222866 0.00249495484785574 -0.025141394362228668 0.00249495484785574 -0.025141394362228668 0.9975050451521443 0.02514139436222866
4.2756244105647745E9 0.9976103070878982 0.022900099501251225 0.002389692912101933 -0.02290009950125123 0.002389692912101933 -0.02290009950125123 0.9976103070878982 0.022900099501251225
4.34014958471025E9 0.9977042375049628 0.02065803331535942 0.0022957624950370103 -0.02065803331535944 0.0022957624950370103 -0.02065803331535944 0.9977042375049628 0.02065803331535942
4.405648534309019E9 0.9977867620996852 0.018414425086905224 0.0022132379003148377 -0.018414425086905214 0.0022132379003148377 -0.018414425086905214 0.9977867620996852 0.018414425086905224
4.472135954999579E9 0.9978577722005608 0.016168473175502025 0.0021422277994391403 -0.016168473175502025 0.0021422277994391403 -0.016168473175502025 0.9978577722005608 0.016168473175502025
4.539626764198246E9 0.9979171185538122 0.013919342041814685 0.002082881446187829 -0.013919342041814681 0.002082881446187829 -0.013919342041814681 0.9979171185538122 0.013919342041814685
4.608136104446089E9 0.9979646031140943 0.011666159154845824 0.0020353968859056462 -0.011666159154845826 0.0020353968859056462 -0.011666159154845826 0.9979646031140943 0.011666159154845824
4.677679346806369E9 0.997999968074795 0.009408012000460996 0.002000031925204966 -0.009408012000460977 0.002000031925204966 -0.009408012000460977 0.997999968074795 0.009408012000460996
4.74827209431328E9 0.9980228810414545 0.0071439456294211615 0.0019771189585455007 -0.007143945629421167 0.0019771189585455007 -0.007143945629421167 0.9980228810414545 0.0071439456294211615
4.819930185472693E9 0.9980329147725306 0.004872961591561503 0.001967085227469316 -0.0048729615915615015 0.001967085227469316 -0.0048729615915615015 0.9980329147725306 0.004872961591561503
4.892669697815779E9 0.9980295192273824 0.002594019860327399 0.0019704807726176996 -0.0025940198603273787 0.0019704807726176996 -0.0025940198603273787 0.9980295192273824 0.002594019860327399
4.966506951506205E9 0.9980119827176338 3.060467641467475E-4 0.001988017282366186 -3.060467641467516E-4 0.001988017282366186 -3.060467641467516E-4 0.9980119827176338 3.060467641467475E-4
5.041458513001835E9 0.9979793777584016 -0.0019920454109781404 0.0020206222415984393 0.001992045410978179 0.0020206222415984393 0.001992045410978179 0.9979793777584016 -0.0019920454109781404
5.117541198771623E9 0.9979304859969084 -0.004301316498188407 0.0020695140030915194 0.004301316498188386 0.0020695140030915194 0.004301316498188386 0.9979304859969084 -0.004301316498188407
5.194772079068655E9 0.997863696338439 -0.006622714186468112 0.0021363036615610056 0.006622714186468123 0.0021363036615610056 0.006622714186468123 0.997863696338439 -0.006622714186468112
5.273168481760088E9 0.9977768742296848 -0.008956910047432692 0.0022231257703152637 0.008956910047432721 0.0022231257703152637 0.008956910047432721 0.9977768742296848 -0.008956910047432692
5.35274799621493E9 0.9976672170076362 -0.011303987763480322 0.0023327829923637353 0.011303987763480308 0.0023327829923637353 0.011303987763480308 0.9976672170076362 -0.011303987763480322
5.433528477250444E9 0.9975311641971732 -0.013662867297491709 0.0024688358028267473 0.013662867297491714 0.0024688358028267473 0.013662867297491714 0.9975311641971732 -0.013662867297491709
5.5155280491381645E9 0.9973645795585409 -0.01603029889068053 0.002635420441459185 0.01603029889068055 0.002635420441459185 0.01603029889068055 0.9973645795585409 -0.01603029889068053
5.598765109670308E9 0.997163769202381 -0.018399317620396552 0.002836230797619076 0.018399317620396552 0.002836230797619076 0.018399317620396552 0.997163769202381 -0.018399317620396552
5.683258334287619E9 0.9969285009551949 -0.020757615518893595 0.0030714990448051094 0.020757615518893584 0.0030714990448051094 0.020757615518893584 0.9969285009551949 -0.020757615518893595
5.769026680269438E9 0.9966683654766973 -0.023088262419523612 0.0033316345233026633 0.02308826241952362 0.0033316345233026633 0.02308826241952362 0.9966683654766973 -0.023088262419523612
5.856089390987081E9 0.9964104358716979 -0.025378515900011073 0.003589564128302191 0.02537851590001109 0.003589564128302191 0.02537851590001109 0.9964104358716979 -0.025378515900011073
5.944466000221332E9 0.9961958579334492 -0.02763942367804239 0.003804142066550761 0.027639423678042396 0.003804142066550761 0.027639423678042396 0.9961958579334492 -0.02763942367804239
6.034176336545165E9 0.9960518670160319 -0.029916854722205285 0.003948132983968223 0.02991685472220528 0.003948132983968223 0.02991685472220528 0.9960518670160319 -0.029916854722205285
6.125240527772534E9 0.9959635658595036 -0.03226532496584606 0.004036434140496188 0.03226532496584605 0.004036434140496188 0.03226532496584605 0.9959635658595036 -0.03226532496584606
6.217679005474381E9 0.9958876968658328 -0.03470990709020605 0.004112303134167318 0.034709907090206056 0.004112303134167318 0.034709907090206056 0.9958876968658328 -0.03470990709020605
6.311512509562712E9 0.9957874097164805 -0.03724383341086863 0.004212590283519585 0.03724383341086862 0.004212590283519585 0.03724383341086862 0.9957874097164805 -0.03724383341086863
6.406762092943938E9 0.995645509112415 -0.03984966612515461 0.00435449088758505 0.0398496661251546 0.00435449088758505 0.0398496661251546 0.995645509112415 -0.03984966612515461
6.503449126242364E9 0.9954584213267686 -0.04251357496478817 0.004541578673231396 0.04251357496478816 0.004541578673231396 0.04251357496478816 0.9954584213267686 -0.04251357496478817
6.601595302595024E9 0.9952279894271114 -0.04522841274576516 0.0047720105728885805 0.04522841274576516 0.0047720105728885805 0.04522841274576516 0.9952279894271114 -0.04522841274576516
6.701222642518842E9 0.9949569659368928 -0.04799229269877132 0.005043034063107362 0.047992292698771304 0.005043034063107362 0.047992292698771304 0.9949569659368928 -0.04799229269877132
6.802353498851242E9 0.9946473344032225 -0.05080672511405608 0.005352665596777534 0.05080672511405608 0.005352665596777534 0.05080672511405608 0.9946473344032225 -0.05080672511405608
6.905010561765357E9 0.994299905701218 -0.05367536088244701 0.005700094298782084 0.05367536088244701 0.005700094298782084 0.05367536088244701 0.994299905701218 -0.05367536088244701
7.009216863860868E9 0.9939143378156309 -0.05660331657771446 0.006085662184369217 0.05660331657771445 0.006085662184369217 0.05660331657771445 0.9939143378156309 -0.05660331657771446
7.114995785331733E9 0.9934892368334164 -0.05959688027422212 0.006510763166583537 0.05959688027422212 0.006510763166583537 0.05959688027422212 0.9934892368334164 -0.05959688027422212
7.222371059211838E9 0.9930222250012821 -0.06266344639394948 0.006977774998717936 0.06266344639394948 0.006977774998717936 0.06266344639394948 0.9930222250012821 -0.06266344639394948
7.331366776699882E9 0.9925099444971336 -0.06581159397877254 0.007490055502866418 0.06581159397877254 0.007490055502866418 0.06581159397877254 0.9925099444971336 -0.06581159397877254
7.442007392564552E9 0.9919479893824739 -0.06905126839816349 0.008052010617526112 0.06905126839816352 0.008052010617526112 0.06905126839816352 0.9919479893824739 -0.06905126839816349
7.554317730631347E9 0.9913307603455879 -0.0723940546397953 0.008669239654412186 0.0723940546397953 0.008669239654412186 0.0723940546397953 0.9913307603455879 -0.0723940546397953
7.668322989352107E9 0.9906512308507435 -0.07585354876570434 0.009348769149256577 0.07585354876570434 0.009348769149256577 0.07585354876570434 0.9906512308507435 -0.07585354876570434
7.784048747458713E9 0.9899006029888454 -0.07944584875593771 0.01009939701115466 0.07944584875593771 0.01009939701115466 0.07944584875593771 0.9899006029888454 -0.07944584875593771
7.901520969701988E9 0.9890678164476772 -0.08319020091724497 0.01093218355232289 0.08319020091724497 0.01093218355232289 0.08319020091724497 0.9890678164476772 -0.08319020091724497
8.020766012677318E9 0.9881388520565069 -0.0871098566928494 0.011861147943493073 0.08710985669284939 0.011861147943493073 0.08710985669284939 0.9881388520565069 -0.0871098566928494
8.141810630738087E9 0.9870957373711888 -0.09123322075446022 0.012904262628811263 0.09123322075446022 0.012904262628811263 0.09123322075446022 0.9870957373711888 -0.09123322075446022
8.264681981998447E9 0.9859151069472394 -0.09559540969246073 0.014084893052760679 0.09559540969246075 0.014084893052760679 0.09559540969246075 0.9859151069472394 -0.09559540969246073
8.389407634426599E9 0.9845660783496744 -0.1002403990490075 0.015433921650325689 0.10024039904900749 0.015433921650325689 0.10024039904900749 0.9845660783496744 -0.1002403990490075
8.516015572030096E9 0.9830070467010906 -0.10522402693502757 0.01699295329890945 0.10522402693502755 0.01699295329890945 0.10522402693502755 0.9830070467010906 -0.10522402693502757
8.644534201134432E9 0.9811807176349185 -0.1106182643431965 0.01881928236508155 0.1106182643431965 0.01881928236508155 0.1106182643431965 0.9811807176349185 -0.1106182643431965
8.774992356756447E9 0.9790061735260768 -0.11651738560923895 0.0209938264739233 0.11651738560923894 0.0209938264739233 0.11651738560923894 0.9790061735260768 -0.11651738560923895
8.907419309073835E9 0.9763657528254442 -0.12304702004644626 0.02363424717455576 0.12304702004644626 0.02363424717455576 0.12304702004644626 0.9763657528254442 -0.12304702004644626
9.041844769992386E9 0.9730824672553573 -0.13037758032168442 0.02691753274464264 0.13037758032168442 0.02691753274464264 0.13037758032168442 0.9730824672553573 -0.13037758032168442
9.178298899812233E9 0.9688792997651116 -0.13874420302641494 0.031120700234888478 0.1387442030264149 0.031120700234888478 0.1387442030264149 0.9688792997651116 -0.13874420302641494
9.316812313994795E9 0.9633018258350483 -0.1484755734266732 0.03669817416495163 0.14847557342667317 0.03669817416495163 0.14847557342667317 0.9633018258350483 -0.1484755734266732
9.457416090031757E9 0.9555617673659255 -0.16003099804136967 0.04443823263407459 0.16003099804136967 0.04443823263407459 0.16003099804136967 0.9555617673659255 -0.16003099804136967
9.600141774417799E9 0.9441978765625696 -0.1740251299020029 0.055802123437430524 0.17402512990200286 0.055802123437430524 0.17402512990200286 0.9441978765625696 -0.1740251299020029
9.74502138972848E9 0.926285425154028 -0.191115101785371 0.073714574845972 0.19111510178537097 0.073714574845972 0.19111510178537097 0.926285425154028 -0.191115101785371
9.892087441804964E9 0.895498930039955 -0.21107520493425397 0.10450106996004517 0.2110752049342539 0.10450106996004517 0.2110752049342539 0.895498930039955 -0.21107520493425397
1.0041372927047213E10 0.8378911730224026 -0.22738904315538777 0.1621088269775974 0.22738904315538772 0.1621088269775974 0.22738904315538772 0.8378911730224026 -0.22738904315538777
1.019291133981715E10 0.7346609222232305 -0.20095252693127566 0.2653390777767695 0.2009525269312757 0.2653390777767695 0.2009525269312757 0.7346609222232305 -0.20095252693127566
1.0346736679953665E10 0.6663900942838056 -0.04234387504896216 0.33360990571619453 0.04234387504896218 0.33360990571619453 0.04234387504896218 0.6663900942838056 -0.04234387504896216
1.050288346040092E10 0.7865655588876057 0.08561582837234424 0.2134344411123943 -0.08561582837234426 0.2134344411123943 -0.08561582837234426 0.7865655588876057 0.08561582837234424
1.0661386714951878E10 0.8957975631003801 0.07173887695518122 0.10420243689962008 -0.07173887695518123 0.10420243689962008 -0.07173887695518123 0.8957975631003801 0.07173887695518122
1.082228200610858E10 0.9437145678429923 0.0329046043875699 0.05628543215700773 -0.03290460438756989 0.05628543215700773 -0.03290460438756989 0.9437145678429923 0.0329046043875699
1.0985605433061178E10 0.964012350781983 0.0011683213769847405 0.035987649218016955 -0.0011683213769847428 0.035987649218016955 -0.0011683213769847428 0.964012350781983 0.0011683213769847405
1.115139363978725E10 0.9730412898685216 -0.022662610543358466 0.026958710131478377 0.02266261054335848 0.026958710131478377 0.02266261054335848 0.9730412898685216 -0.022662610543358466
1.1319683823273457E10 0.9770115422975696 -0.040966027964464344 0.022988457702430333 0.040966027964464406 0.022988457702430333 0.040966027964464406 0.9770115422975696 -0.040966027964464344
1.1490513741861174E10 0.9784335225140322 -0.05557691325352979 0.02156647748596785 0.05557691325352979 0.02156647748596785 0.05557691325352979 0.9784335225140322 -0.05557691325352979
1.1663921723718182E10 0.9784151142319266 -0.06767523583125014 0.021584885768073492 0.06767523583125015 0.021584885768073492 0.06767523583125015 0.9784151142319266 -0.06767523583125014
1.1839946675438086E10 0.9774792291805301 -0.07800388106964444 0.02252077081946989 0.07800388106964445 0.02252077081946989 0.07800388106964445 0.9774792291805301 -0.07800388106964444
1.201862809076963E10 0.9758811336374458 -0.08703089252764364 0.02411886636255431 0.08703089252764368 0.02411886636255431 0.08703089252764368 0.9758811336374458 -0.08703089252764364
1.2200006059477636E10 0.9737445328714791 -0.09504517950319706 0.026255467128520952 0.09504517950319709 0.026255467128520952 0.09504517950319709 0.9737445328714791 -0.09504517950319706
1.2384121276337788E10 0.9711278882373897 -0.10220909172932241 0.028872111762610276 0.10220909172932238 0.028872111762610276 0.10220909172932238 0.9711278882373897 -0.10220909172932241
1.2571015050267014E10 0.9680650070687253 -0.10858571511656466 0.031934992931274754 0.10858571511656466 0.031934992931274754 0.10858571511656466 0.9680650070687253 -0.10858571511656466
1.2760729313591831E10 0.9646007634307872 -0.11415386643303162 0.035399236569212914 0.11415386643303162 0.035399236569212914 0.11415386643303162 0.9646007634307872 -0.11415386643303162
1.2953306631456385E10 0.9608333324694355 -0.11882443559071502 0.03916666753056443 0.11882443559071502 0.03916666753056443 0.11882443559071502 0.9608333324694355 -0.11882443559071502
1.3148790211372633E10 0.9569647956389123 -0.12247744785178022 0.043035204361087556 0.12247744785178022 0.043035204361087556 0.12247744785178022 0.9569647956389123 -0.12247744785178022
1.3347223912914501E10 0.9533417508262029 -0.12504315511556718 0.04665824917379709 0.1250431551155672 0.04665824917379709 0.1250431551155672 0.9533417508262029 -0.12504315511556718
1.354865225755849E10 0.9504351420466483 -0.1266316296085324 0.04956485795335165 0.1266316296085324 0.04956485795335165 0.1266316296085324 0.9504351420466483 -0.1266316296085324
1.3753120438672642E10 0.9486988004111169 -0.12764980725660333 0.05130119958888323 0.1276498072566033 0.05130119958888323 0.1276498072566033 0.9486988004111169 -0.12764980725660333
1.3960674331656387E10 0.9483304450913906 -0.1287739190467697 0.051669554908609375 0.12877391904676966 0.051669554908609375 0.12877391904676966 0.9483304450913906 -0.1287739190467697
1.4171360504233326E10 0.9491114948429012 -0.13071191034884805 0.050888505157098744 0.13071191034884802 0.050888505157098744 0.13071191034884802 0.9491114948429012 -0.13071191034884805
1.438522622689936E10 0.9504965753029246 -0.1339127853301427 0.04950342469707543 0.13391278533014267 0.04950342469707543 0.13391278533014267 0.9504965753029246 -0.1339127853301427
1.4602319483528553E10 0.9518786735591779 -0.13846038593259363 0.04812132644082217 0.13846038593259363 0.04812132644082217 0.13846038593259363 0.9518786735591779 -0.13846038593259363
1.482268898213895E10 0.9528011788763142 -0.14418352873913837 0.04719882112368577 0.14418352873913837 0.04719882112368577 0.14418352873913837 0.9528011788763142 -0.14418352873913837
1.5046384165821007E10 0.9530096004309291 -0.15082981639289403 0.046990399569070945 0.15082981639289406 0.046990399569070945 0.15082981639289406 0.9530096004309291 -0.15082981639289403
1.527345522383077E10 0.9523975857898507 -0.15818201847586633 0.04760241421014919 0.15818201847586633 0.04760241421014919 0.15818201847586633 0.9523975857898507 -0.15818201847586633
1.5503953102850658E10 0.9509308260021337 -0.16610063625622842 0.04906917399786638 0.16610063625622842 0.04906917399786638 0.16610063625622842 0.9509308260021337 -0.16610063625622842
1.573792951842E10 0.9485885247685851 -0.17452395878411545 0.05141147523141488 0.17452395878411542 0.05141147523141488 0.17452395878411542 0.9485885247685851 -0.17452395878411545
1.5975436966538242E10 0.9453261257544577 -0.18345415017083172 0.05467387424554236 0.18345415017083172 0.05467387424554236 0.18345415017083172 0.9453261257544577 -0.18345415017083172
1.6216528735443121E10 0.9410502972435892 -0.1929433738089569 0.05894970275641087 0.1929433738089569 0.05894970275641087 0.1929433738089569 0.9410502972435892 -0.1929433738089569
1.646125891756672E10 0.9355961056898537 -0.20308397765997552 0.06440389431014627 0.20308397765997552 0.06440389431014627 0.20308397765997552 0.9355961056898537 -0.20308397765997552
1.6709682421671806E10 0.9286973214295928 -0.21400193544530544 0.0713026785704071 0.2140019354453054 0.0713026785704071 0.2140019354453054 0.9286973214295928 -0.21400193544530544
1.6961854985171501E10 0.9199399310056642 -0.22584986044375602 0.08006006899433576 0.225849860443756 0.08006006899433576 0.225849860443756 0.9199399310056642 -0.22584986044375602
1.7217833186634693E10 0.9086844753254398 -0.23879152523303834 0.09131552467456008 0.2387915252330383 0.09131552467456008 0.2387915252330383 0.9086844753254398 -0.23879152523303834
1.7477674458480328E10 0.8939329301902315 -0.2529587482761841 0.10606706980976856 0.2529587482761841 0.10606706980976856 0.2529587482761841 0.8939329301902315 -0.2529587482761841
1.7741437099863132E10 0.874098061856097 -0.2683312989283104 0.12590193814390307 0.2683312989283105 0.12590193814390307 0.2683312989283105 0.874098061856097 -0.2683312989283104
1.8009180289753963E10 0.8466100852432332 -0.28440612971756024 0.15338991475676692 0.28440612971756024 0.15338991475676692 0.28440612971756024 0.8466100852432332 -0.28440612971756024
1.8280964100217365E10 0.8073127699714647 -0.2992848954204897 0.19268723002853524 0.2992848954204897 0.19268723002853524 0.2992848954204897 0.8073127699714647 -0.2992848954204897
1.8556849509889713E10 0.7499590813467994 -0.3071838326316684 0.2500409186532006 0.3071838326316684 0.2500409186532006 0.3071838326316684 0.7499590813467994 -0.3071838326316684
1.8836898417660553E10 0.6683274761661618 -0.2923228824229603 0.3316725238338383 0.29232288242296034 0.3316725238338383 0.29232288242296034 0.6683274761661618 -0.2923228824229603
1.912117365656061E10 0.5718971890793497 -0.22079455354334998 0.4281028109206504 0.22079455354335006 0.4281028109206504 0.22079455354335006 0.5718971890793497 -0.22079455354334998
1.94097390078592E10 0.5252400141111093 -0.0669882777625865 0.47475998588889073 0.06698827776258652 0.47475998588889073 0.06698827776258652 0.5252400141111093 -0.0669882777625865
1.9702659215374565E10 0.6045765007235745 0.0885589256627321 0.3954234992764256 -0.08855892566273212 0.3954234992764256 -0.08855892566273212 0.6045765007235745 0.0885589256627321
2.0E10 0.7414970662866157 0.14121133890558255 0.2585029337133841 -0.14121133890558246 0.2585029337133841 -0.14121133890558246 0.7414970662866157 0.14121133890558255
